Int 8.263404
on 6.4453964
ation 0.48860857
Ġhas 5.494115
Ġbeen 1.152735
Ġa 1.4272761
Ġwide 9.394801
Ġand 3.054287
Ġcommon 5.1544094
Ġtopic 1.7109116
Ġin 1.4951985
Ġthe 1.3608541
Ġstudy 3.7996156
Ġof 0.036263674
ĠEnglish 3.6747687
Ġphon 1.3581886
ology 0.13655311
. 0.9754322
ĠDifferent 4.864421
Ġfrom 4.689913
Ġsegment 5.1690316
al 0.11312889
Ġphon 1.972692
ology 0.50936043
Ġsuch 4.5033717
Ġas 0.0033336019
Ġthe 1.8298618
Ġstudy 0.9076719
Ġof 0.03702214
Ġphon 1.8965791
em 0.46987942
es 0.0058689183
Ġand 1.0745431
Ġsyll 2.084302
ables 0.2264715
, 0.08485831
Ġint 0.41506773
on 0.0003624167
ation 0.12437108
Ġbelongs 5.9880543
Ġto 0.012212243
, 10.253616
Ġas 2.08845
Ġwell 3.7639024
Ġas 0.047790818
Ġstress 12.935916
, 0.6648423
Ġsu 3.9067357
pr 0.00079157815
ase 0.0004320008
gment 0.002849545
al 0.06177385
Ġphon 0.35404757
ology 0.014354269
Ġ( 3.342244
Ro 8.483034
ach 0.008067604
Ġ2000 4.7101426
). 1.0026472
ĠIt 2.0225372
Ġis 0.8218853
Ġa 1.7776636
Ġcomplicated 5.775975
Ġsystem 2.7530036
Ġin 2.7816675
ĠEnglish 1.7746103
Ġwhich 2.628813
Ġplays 4.422527
Ġan 0.7859822
Ġessential 3.1718893
Ġrole 0.09062545
Ġin 0.070163935
Ġthe 1.1900389
Ġuse 6.1827765
Ġof 0.047790255
Ġlanguage 1.1070381
Ġand 2.520162
Ġit 3.9310443
Ġsometimes 7.203228
Ġmay 4.2858667
Ġimply 6.899037
Ġmore 3.5298707
Ġinformation 1.9980031
Ġbeyond 7.31329
Ġthe 0.6469446
Ġreal 7.306795
Ġspeech 5.140261
Ġrather 7.8408823
Ġthan 0.012668014
Ġbe 7.03782
Ġa 1.7753398
Ġby 6.46147
product 1.3968898
Ġof 0.20076266
Ġthe 1.41134
Ġutter 4.3508544
ance 0.073228724
. 0.95230854
ĠFor 3.0494246
Ġaccurately 13.689791
Ġdescribing 1.7656158
Ġthe 1.2824075
Ġint 0.80347526
on 0.0006557601
ation 0.053639594
Ġsystem 1.7007242
, 1.6081371
Ġvarious 4.2259936
Ġanalysis 6.0172124
Ġsystems 4.0193152
Ġand 2.6432052
Ġnot 5.342917
ations 0.09277908
Ġhave 0.35869732
Ġbeen 0.041707993
Ġused 2.8702903
Ġwhich 4.8371463
Ġoften 4.0736055
Ġhave 2.914621
Ġtheir 1.8054878
Ġown 0.3200704
Ġadvantages 1.5880445
Ġand 0.18076152
Ġdisadvantages 0.4136533
. 0.29747128
ĠThis 3.110821
Ġessay 4.1527886
Ġwill 0.92491055
Ġbasically 8.013101
Ġintroduce 2.4890256
Ġtwo 2.5491636
Ġof 2.266112
Ġthe 0.6192854
Ġanalysis 3.4451437
Ġsystems 0.12522036
Ġ- 5.4681716
Ġthe 0.8300995
Ġtraditional 3.4809048
ĠBritish 5.1761684
Ġanalysis 1.5186448
Ġof 3.8206096
ĠEnglish 3.213839
Ġint 0.20206593
on 0.00018260024
ation 0.0074543157
Ġpresented 6.4180045
Ġby 0.24285324
ĠPeter 4.473144
ĠRo 1.7884418
ach 0.0014391888
Ġ( 0.82182527
2000 0.9225928
) 0.29884169
Ġand 0.06880697
Ġthe 0.21017694
Ġrelatively 6.3721967
Ġnew 0.3654544
Ġnotation 4.0904284
Ġsystem 1.314942
ĠTo 10.929861
BI 0.0024674125
Ġused 4.1598635
Ġwidely 4.725507
Ġin 0.6250192
Ġthe 0.7084921
ĠU 4.6378846
. 0.017661013
S 0.030683745
.; 6.794172
Ġfurthermore 3.8904269
, 0.09642882
Ġit 1.3626511
Ġattempts 5.3090076
Ġto 0.021578886
Ġevaluate 3.6026042
Ġthe 0.76151925
Ġbenefits 5.770009
Ġand 0.37455884
Ġdrawbacks 1.2109637
Ġof 0.07779072
Ġthose 4.1440096
Ġtwo 0.6773158
Ġsystems 0.30615315
Ġby 3.0567
Ġa 3.9363093
Ġcomparison 1.9120904
Ġbetween 2.5025039
Ġthem 0.6305135
. 0.29315063
ĠAs 5.1499557
Ġa 0.8361166
Ġkind 5.876269
Ġof 0.0061716787
Ġaut 9.824401
ose 0.43239176
gment 0.009802687
al 0.07106316
Ġapproach 3.926615
Ġto 2.0143754
Ġthe 1.5669085
Ġint 1.6941129
on 0.00033367614
ation 0.43577856
Ġsystem 0.99275917
, 0.21315978
ĠTo 0.7388521
BI 0.0018193722
Ġis 1.3742857
Ġoriginated 7.5298
Ġby 2.248866
ĠPierre 2.6116512
h 0.18211967
umber 0.00028710873
t 0.0086817
Ġ( 0.6220772
1980 0.35110128
: 7.7204084
Ġ87 6.031242
Ġin 8.077008
ĠCr 7.529552
utt 0.068233944
end 0.0063810083
en 0.0012664603
Ġ1997 3.2357898
) 1.1892719
Ġand 0.5985921
Ġused 4.690809
Ġmostly 5.775303
Ġin 0.4425698
Ġthe 0.27494898
ĠAmerican 4.931125
Ġacademic 4.94326
Ġresearch 3.8035514
. 1.4315264
ĠIt 1.9002879
Ġapplies 6.8016567
Ġonly 6.704765
Ġtwo 5.5016837
Ġtones 3.8024716
, 1.2992134
ĠHigh 4.103082
Ġ( 0.9483812
H 0.07688189
) 0.048975736
Ġand 0.034360196
ĠLow 0.029904723
Ġ( 0.022780458
L 0.005199735
) 1.0018061
Ġto 1.1889126
Ġthe 1.9840424
Ġanalysis 3.9207885
Ġand 2.911968
Ġpresents 5.7995596
Ġa 1.4230006
Ġquite 5.791399
Ġnew 4.582852
Ġview 2.583333
Ġof 1.127268
Ġthe 0.7891814
Ġint 0.37683597
on 0.00046288988
ation 0.011151775
Ġsystem 0.42941242
. 1.2251226
ĠIt 2.5998764
Ġis 1.126704
Ġnecessary 7.6193194
Ġto 0.25147796
Ġintroduce 4.472513
Ġfive 10.39748
Ġtypes 3.902269
Ġof 0.040414196
Ġsymbols 5.595613
Ġused 1.8994416
Ġin 0.17397359
ĠTo 0.6608587
BI 0.0026128618
Ġ( 3.4820757
Cr 1.5487384
utt 0.001511479
end 0.0030543555
en 0.00029378536
Ġ1997 0.22177014
: 0.41530952
Ġ60 5.495516
): 1.5141495
ĠOther 9.117295
Ġsymbols 2.015803
Ġsuch 3.6660225
Ġas 0.008523466
Ġ'' 8.356694
Ġ( 2.9711783
shown 7.567738
Ġas 1.1523541
Ġ' 2.797693
H 4.0334954
' 2.5933523
Ġand 3.2714021
Ġ' 0.37786657
L 0.23626193
') 1.6279113
Ġand 1.5095139
Ġ' 1.4225925
% 5.8861394
' 0.09544663
Ġ( 1.084122
shown 0.36514091
Ġas 0.014988157
Ġ' 0.47012627
H 1.5960683
% 0.60277617
' 0.18006453
Ġand 0.098431274
Ġ' 0.02099492
L 0.013520241
% 0.3945345
') 0.06658456
Ġrepresents 7.9603205
Ġnamely 12.2099
Ġ' 3.569851
pause 6.416354
- 4.978569
type 1.63819
' 0.49332654
Ġboundary 9.944443
Ġ( 2.7443774
|| 11.745665
) 0.53740585
Ġand 0.14723356
Ġ' 0.58127445
non 4.213539
- 0.12311859
pause 0.93884516
' 2.628109
Ġboundary 0.048097875
Ġ( 0.29504612
| 1.1479862
) 1.4569855
Ġas 5.308144
Ġthey 4.621947
Ġare 0.79341733
Ġmentioned 6.230316
Ġin 0.4593959
ĠRo 2.6462228
ach 0.0017612736
Ġ( 0.26002616
2000 0.14422409
); 4.5458198
Ġhowever 3.7260551
, 0.075194694
Ġ'' 3.8005672
Ġcan 4.700493
Ġoccur 6.9562693
Ġbefore 3.2283964
Ġboth 5.282839
Ġboundaries 4.7694316
Ġand 2.1204777
Ġ' 1.6084445
% 0.13966164
' 0.0139740715
Ġonly 1.8074081
Ġappears 3.2438414
Ġbefore 0.5672165
Ġthe 1.268216
Ġ' 1.6681747
pause 0.89821446
- 0.4390318
type 0.018006748
' 0.107011944
Ġboundary 0.2635919
Ġ( 2.414453
Cr 1.270877
utt 0.0014323255
end 0.0011258635
en 0.00022301951
Ġ1997 0.063298404
). 1.6493084
ĠTherefore 4.957459
, 0.07446325
Ġif 4.2462864
Ġthe 1.9103264
Ġtone 2.9204533
Ġunit 5.8543806
Ġ( 3.239346
2 7.588668
) 0.7766519
Ġis 1.089684
Ġanalyzed 3.5418725
Ġin 1.9234419
ĠTo 1.282306
BI 0.0023938017
, 0.2035655
Ġit 1.0731764
Ġmay 3.6367085
Ġbe 0.47779012
Ġlike 4.678599
Ġthis 1.0301307
. 3.9822707
Ġ( 1.7956691
2 0.3837512
) 0.061984375
Ġ( 2.9601347
10 7.7575927
) 0.9081267
ĠAfter 7.4607706
Ġthe 1.5262336
Ġrough 8.815612
Ġintroduction 2.3053
Ġof 0.3795643
Ġboth 3.5052226
Ġsystems 0.91574275
, 0.19805083
Ġthe 1.2601209
Ġadvantages 4.0355787
Ġand 0.10982328
Ġdisadvantages 0.34337273
Ġof 0.104311556
Ġeach 1.494371
Ġcan 4.7520037
Ġbe 0.056725234
Ġnoticed 6.287435
Ġwith 5.1289487
Ġa 1.2069649
Ġcomparison 0.7767309
Ġbetween 0.72755045
Ġthem 0.27440044
. 0.23225577
Ġ1 4.59983
. 0.23569413
ĠThe 1.4666984
Ġapplication 6.6060977
Ġof 0.29963034
Ġdifferent 4.291105
Ġnot 2.764391
ations 0.012207537
Ġusually 9.713259
Ġconve 7.7664366
ys 0.0022591401
Ġa 2.2171175
Ġdirect 7.011501
Ġimpression 3.794631
Ġto 1.7069417
Ġreaders 2.3568141
. 1.178438
ĠUnd 8.54884
en 2.7129576
iably 0.025129866
, 0.03640658
Ġthe 0.94663554
Ġsymbols 4.300175
Ġsuch 4.3067017
Ġas 0.011409478
Ġ' 0.91727424
Ġ', 5.3919344
Ġ' 0.2026736
Ġ' 2.0711765
Ġand 0.245382
Ġ' 0.15268432
Ġ' 0.75473547
Ġdo 4.9112797
Ġprovide 5.2849536
Ġa 0.65920424
Ġsimple 4.2882185
Ġand 0.96003544
Ġvisual 4.903659
Ġguidance 5.8689904
Ġfor 1.1393569
Ġthe 1.183757
Ġreaders 1.054482
Ġof 2.929306
Ġcourse 9.067794
Ġwith 4.731243
Ġappropriate 6.0205965
Ġexplanation 2.7429237
Ġbut 5.030414
Ġare 4.856633
Ġquite 3.473526
Ġdifficult 2.049663
Ġto 0.22655073
Ġtype 5.1033483
Ġin 1.7557127
Ġcomputers 3.3929574
. 0.79280096
ĠCont 7.988886
rarily 0.2425564
, 0.02222919
Ġ' 3.229575
Ġ* 8.419849
Ġ' 1.5174178
Ġ' 2.5859952
Ġ! 5.257886
Ġ', 3.8308687
Ġ' 0.3121752
Ġ% 3.5548828
Ġ', 1.6902083
Ġetc 2.3574553
. 0.20276141
Ġare 0.6256477
Ġquite 2.5860503
Ġmeaningless 8.1231
Ġand 1.5944752
Ġabstract 4.828125
Ġcodes 7.31399
Ġwhich 1.665058
Ġare 1.3118104
Ġdifficult 2.4761112
, 6.2323613
Ġespecially 3.7051194
, 3.643017
Ġfor 0.2674911
Ġlearners 4.0507836
Ġto 0.7984577
Ġremember 1.546841
, 3.505593
Ġwhich 3.6382146
Ġis 1.7300651
Ġalso 3.4000916
Ġagreed 7.113765
Ġby 0.14118181
ĠRo 2.2425363
ach 0.0039766403
Ġ( 0.10100421
2000 0.04737014
) 2.3593812
Ġand 1.3730395
Ġ( 6.4955077
Cr 0.7107353
utt 0.0011641699
end 0.00049049745
en 7.422359e-05
Ġ1997 0.07693705
); 4.1286407
Ġhowever 1.5640482
, 0.020950183
Ġthe 1.948514
Ġsystem 4.2611995
Ġis 1.9857446
Ġeasy 3.450558
Ġto 0.20299438
Ġbe 2.4949396
Ġused 2.317478
Ġin 0.83002406
Ġcomputers 0.64768565
. 1.0226761
Ġ2 0.86010337
. 0.004408858
ĠFor 4.177632
Ġthe 1.1176654
Ġattempt 9.542598
Ġto 0.6684029
Ġdescribe 2.172997
Ġthe 0.6458983
Ġnatural 6.151648
Ġspeech 2.8311474
, 1.1107095
Ġthe 1.0742465
ĠRo 8.368031
ach 0.0021650544
's 0.6465977
Ġsystem 1.1309212
Ġseems 3.1780841
Ġto 0.35470876
Ġhave 2.624239
Ġmore 1.8864255
Ġlimitation 6.3709826
Ġthan 1.189136
ĠTo 0.512436
BI 0.0047412454
. 0.44107196
ĠOne 4.972562
Ġis 3.9577954
Ġthe 1.516569
Ġanalysis 6.1041923
Ġon 5.175646
Ġmore 6.906652
Ġthan 0.8004239
Ġone 0.4988612
Ġtone 0.8703467
Ġmovement 10.071585
Ġin 2.2971454
Ġa 1.2193553
Ġtone 1.3563542
Ġunit 0.029900914
. 0.96033674
ĠRo 3.6190016
ach 0.0021449826
Ġgenerally 6.9865713
Ġsummarizes 7.5887313
Ġfive 5.6922526
Ġsituations 6.095815
Ġas 2.823444
Ġmentioned 5.0716887
Ġabove 1.3144054
; 2.296624
Ġnevertheless 3.335647
, 0.030537602
Ġthe 2.0507162
Ġnatural 5.2084026
Ġint 3.0181854
on 0.0009070707
ation 0.04121159
Ġsystem 2.3215892
Ġis 1.3453306
Ġnot 1.8820183
Ġas 2.7069166
Ġsimple 0.6178393
Ġas 0.157448
ĠRo 3.1956215
ach 0.0017357179
's 1.1903089
Ġgeneral 5.7488885
ization 0.8663638
. 0.5751884
ĠConsidering 6.630483
Ġthe 0.502573
Ġfollowing 3.8390937
Ġexample 1.06202
Ġ( 1.5444806
11 4.5913615
) 1.1645368
Ġindicated 10.329058
Ġin 1.890951
ĠTo 1.9687039
BI 0.0013888724
Ġsystem 5.662522
Ġby 3.994017
ĠCr 1.8785259
utt 0.004228911
end 0.004001837
en 0.00032276337
Ġ( 0.07108082
1997 0.055919323
: 0.26552683
Ġ63 3.3461475
), 0.3767359
Ġit 1.5917792
Ġis 0.86593324
Ġdifficult 2.6340606
Ġto 0.21992709
Ġuse 4.027934
ĠRo 1.6218119
ach 0.0019920783
's 0.031717863
Ġsystem 0.69607085
Ġto 0.6001367
Ġanalyze 1.4015645
Ġthe 1.2005534
Ġtone 2.3028264
Ġunit 0.9460495
. 1.1969978
Ġ( 0.21242128
11 0.13325734
) 0.009149456
ĠAccording 4.5274944
Ġto 0.017351177
ĠRo 1.571202
ach 0.0010598671
Ġ( 0.6797237
2000 0.046397
), 0.95844245
Ġthere 2.6965797
Ġis 1.6628683
Ġonly 1.2810005
Ġone 0.19051735
Ġtone 0.57877976
Ġmovement 0.31856963
Ġcarried 8.805343
Ġby 1.1204925
Ġthe 0.7566082
Ġton 5.581479
ic 0.24810821
Ġsyll 1.177063
able 0.043757476
, 2.6010683
Ġso 2.8620806
Ġthe 1.0084932
Ġpart 7.4568534
Ġfrom 3.3130126
Ġdidn 11.840562
't 0.047593396
Ġto 1.1324378
Ġto 4.2042456
Ġshould 3.8004856
Ġbe 0.22138323
Ġconsidered 3.1172824
Ġas 0.17149237
Ġa 0.9212569
Ġlow 5.8638587
Ġhead 9.581511
Ġif 6.8882256
Ġgo 10.304992
Ġis 0.79021627
Ġthe 1.3630162
Ġton 0.8186809
ic 0.0025167712
Ġsyll 0.6011568
able 0.0050859614
. 0.75025654
ĠThus 4.4117928
Ġthere 5.1789417
Ġshould 2.4375346
Ġbe 0.1007155
Ġno 2.3728502
Ġtone 1.6678187
Ġmovement 0.33849397
Ġbefore 4.166663
Ġthe 1.1966661
Ġton 2.0586274
ic 0.0012732628
Ġsyll 0.3107517
able 0.008347707
Ġcarrying 8.125528
Ġa 2.2489893
Ġrising 3.795826
Ġtone 0.20411164
Ġsuch 6.113975
Ġas 0.016357534
Ġ( 3.254201
9 4.7330313
a 2.572453
), 2.0144072
Ġbut 2.2401357
Ġit 2.0978596
Ġdoes 2.9872003
Ġnot 0.95846605
Ġmake 3.2023356
Ġsense 0.46934986
Ġin 1.7443104
Ġ( 2.688717
11 0.24148667
). 0.5596473
ĠThe 2.3863401
Ġpossible 6.502449
Ġsolution 1.6242864
Ġis 0.648601
Ġeither 4.735067
Ġto 0.89627326
Ġadmit 5.936164
Ġthe 1.478203
Ġexistence 2.8033295
Ġof 0.005612939
Ġmore 2.4220834
Ġthan 0.117598735
Ġone 0.12676576
Ġton 4.3301992
ic 0.024417024
Ġsyll 0.18871655
able 0.13442774
Ġin 1.1171448
Ġa 0.85296464
Ġtone 0.13438852
Ġunit 0.02043678
, 2.0556293
Ġas 2.601546
Ġthe 3.1545856
Ġproblem 7.354925
Ġraised 4.602793
Ġby 0.41375798
ĠRo 2.312174
ach 0.0085630845
Ġhimself 1.8602784
Ġ( 0.7676742
2000 0.44414636
: 0.3654926
Ġ178 6.093711
) 1.6011046
Ġor 0.3081757
Ġto 0.39043432
Ġdivide 4.2158346
Ġ( 4.4129167
11 0.13711587
) 0.07689276
Ġinto 0.07900964
Ġthree 2.6612308
Ġtone 0.4142229
Ġunits 0.07180448
Ġbut 5.6735883
Ġit 1.1669291
Ġwill 2.5001137
Ġlooks 11.109237
Ġquite 2.0686135
Ġfar 6.401448
fetched 3.2567174
. 0.63993365
ĠAnother 1.6870311
Ġlimitation 2.0000322
Ġis 0.92292905
Ġto 4.0165453
Ġanalyze 2.3181407
Ġthe 0.53214943
Ġdetail 9.260247
Ġin 3.6349316
Ġa 1.7033734
Ġrising 5.1938095
Ġor 2.3250751
Ġa 2.484112
Ġfalling 0.07804002
Ġpitch 5.322155
Ġmovement 1.2521958
, 3.0316632
Ġfor 2.410761
Ġinstance 1.3485107
, 0.14156477
Ġthe 1.0563014
Ġhigh 4.8775673
Ġfall 3.827116
Ġand 3.5229864
Ġlow 1.136435
Ġfall 0.8095245
. 1.691899
ĠAs 2.6718667
Ġshown 2.4157004
Ġin 0.14348064
Ġthe 1.4236594
Ġexample 2.1274073
Ġ( 0.21381335
4 4.808986
) 1.1000849
Ġwhere 5.7551293
Ġmight 9.2835865
Ġcarries 6.5574102
Ġa 0.49204114
Ġfalling 2.8067696
Ġtone 0.5859272
, 0.8116172
Ġone 4.6101136
Ġmay 1.4328378
Ġstill 5.718065
Ġfail 6.3734517
Ġto 0.05423256
Ġded 8.096214
uce 0.0013984825
Ġthe 0.78573966
Ġcorrect 4.3457775
Ġpitch 2.221319
Ġheight 5.645103
Ġof 1.0727437
Ġmight 1.884059
Ġbecause 2.7902424
Ġthe 1.2242386
Ġsymbol 4.566381
Ġ' 0.86880964
Ġ' 0.89133537
Ġdoes 2.3220427
Ġnot 0.02390948
Ġindicate 1.8102568
Ġwhether 2.0908277
Ġa 3.6990428
Ġhigh 2.849775
Ġfall 0.532136
Ġor 0.31911418
Ġa 0.40028113
Ġlow 0.0180147
Ġfall 0.009828931
Ġalthough 7.212666
ĠRo 3.46256
ach 0.00313824
Ġused 6.91032
Ġ'' 3.1349902
Ġonce 6.6025414
Ġto 1.431273
Ġindicate 0.9714279
Ġthe 1.312888
Ġfull 9.428017
Ġrise 2.8587062
Ġ( 1.9073384
Ro 1.803506
ach 0.00013538517
Ġ2000 0.053579282
: 0.17646739
Ġ155 5.6651754
). 0.29168847
ĠIn 2.1836786
Ġcontrast 1.9340556
, 0.14673741
ĠTo 0.9415677
BI 0.2639815
Ġhas 2.9766068
Ġa 1.3061869
Ġcon 10.876252
natural 8.616272
Ġmerit 9.431021
Ġfrom 5.776434
Ġits 2.0493793
Ġsimple 3.772355
Ġstructure 3.1910117
Ġthat 3.4468029
Ġit 1.2750834
Ġis 1.4287995
Ġmore 3.296738
Ġflexible 2.3224502
Ġto 0.9612313
Ġdescribe 1.299578
Ġdifferent 3.1673694
Ġlevels 5.6622925
Ġof 0.15104309
Ġthe 2.6495934
Ġpitch 0.8208754
Ġheight 4.514429
. 1.1413745
ĠSo 6.263179
Ġa 4.62937
Ġhigh 1.5340898
Ġfall 0.080866
Ġand 2.082112
Ġa 0.2544748
Ġlow 0.035838295
Ġfall 0.0074177436
Ġcan 0.67788243
Ġbe 0.08667112
Ġillustrated 5.408407
Ġpresented 14.240378
Ġas 2.327769
ĠH 6.2660995
* 2.5321379
L 2.4856863
- 5.703862
L 1.567387
% 1.3438709
Ġand 0.5526384
Ġ! 7.0452447
H 0.91919804
* 1.7717878
L 0.7248032
- 0.5907376
L 0.44809318
% 0.8037188
Ġin 2.4446738
Ġtone 5.7818193
Ġunits 1.7423949
Ġ( 1.6773074
Cr 4.5847125
utt 0.000954619
end 0.00062862184
en 0.00023738743
Ġ1997 0.029475534
: 0.25999507
Ġ63 2.5432622
). 0.49929476
ĠHence 6.4621305
, 0.4159076
ĠTo 2.0728393
BI 0.0004347435
Ġseems 2.0705497
Ġable 6.040197
Ġto 0.010994052
Ġbe 3.3730268
Ġapplied 1.4399333
Ġmore 1.950998
Ġsuccessfully 4.166632
Ġand 3.8959825
Ġextensively 5.4162498
Ġin 1.414248
Ġthe 0.94576174
Ġdescription 1.3346832
Ġof 0.052057467
Ġint 1.5255065
on 0.00027363625
ation 0.042536464
Ġin 2.0541024
ĠR 12.186983
. 2.2303329
P 4.2790084
., 4.7606983
ĠG 5.879597
. 0.12610851
A 3.6419904
. 0.36719906
Ġand 0.87882406
ĠAustralian 6.2683954
ĠEnglish 0.37499073
Ġ( 1.6390556
Cr 0.45820388
utt 0.00029020815
end 0.0004865636
en 0.00020549206
Ġ1997 0.058534637
) 2.982248
Ġalthough 3.0953217
Ġit 0.795474
Ġhas 2.0434763
Ġnot 2.0797455
Ġbeen 0.31407964
Ġapplied 1.6718204
Ġvery 5.000005
Ġwell 3.5156257
Ġinto 5.3807206
Ġall 5.988003
Ġthe 1.3692392
Ġint 3.9888752
on 0.0009096961
ation 0.06814397
Ġsystems 1.2051163
Ġin 1.0634502
Ġa 5.293744
Ġstatistic 11.847094
Ġresult 5.823358
Ġ( 1.9105912
Ohio 11.671149
ĠState 0.2864492
ĠUniversity 0.13090494
ĠDepartment 4.068608
Ġof 0.030094141
ĠL 0.6996777
ingu 0.0016178599
istics 0.012056281
Ġ2004 4.0154443
). 0.24846172
Ġ3 0.6875404
. 0.0029444105
ĠWith 4.5263305
Ġthe 1.3407018
Ġdrawback 7.800985
Ġin 2.9579418
ĠRo 3.5115867
ach 0.001239782
's 0.030548725
Ġsystem 0.23065118
Ġdisc 12.151452
ss 7.90707
ed 0.016011765
Ġabove 0.21724433
, 0.03549918
Ġit 1.5222224
Ġstill 2.7306933
Ġhad 7.4537897
Ġthe 2.3447533
Ġbenefit 3.0328813
Ġof 0.6738423
Ġits 3.3796148
Ġsimple 3.5530195
Ġgeneral 5.9987483
ization 0.21205972
Ġabout 4.233634
Ġthe 0.36849633
Ġint 0.9406077
on 0.0014801384
ation 0.016639305
Ġbecause 7.5709596
Ġit 0.943828
Ġprovided 5.8847685
Ġa 0.54320544
Ġcomparatively 6.74553
Ġclear 2.3458736
Ġprofile 8.541104
Ġof 0.40172958
Ġthe 0.3842549
Ġreal 7.3448358
Ġsystem 4.4026985
Ġwith 3.627914
Ġstraightforward 7.2135515
Ġnot 3.481368
ations 0.0067271893
Ġand 2.4768152
Ġestablished 7.382289
Ġan 4.0443945
Ġeasy 2.4066484
Ġaccess 4.34113
Ġto 0.4553579
Ġthe 0.66992676
Ġcomplicated 7.4155264
Ġint 1.0724167
on 0.001212212
ation 0.01927137
Ġsystem 0.23367782
, 3.7058961
Ġat 4.1723247
Ġleast 0.19934149
Ġfor 1.165957
Ġthe 1.0219023
Ġlearners 3.2236395
. 0.815298
ĠNonetheless 5.3996925
, 0.01543726
ĠTo 1.5688183
BI 0.00063017063
Ġfocuses 7.0480576
Ġon 0.74578077
Ġa 2.6641486
Ġfull 6.2655635
- 2.7180996
scale 1.1936979
Ġdescription 1.1981933
Ġand 3.4538543
Ġmakes 5.252446
Ġit 2.0097857
Ġa 3.7051144
Ġlittle 2.295333
Ġdifficult 1.5312535
Ġto 0.6900513
Ġsummarize 4.342761
Ġthe 0.603007
Ġanalysis 4.9886627
Ġresults 3.3250468
Ġand 3.790973
Ġpoint 6.9959507
Ġout 0.12637435
Ġthe 0.37433365
Ġoutline 7.843382
Ġof 0.16576368
Ġthe 0.2479437
Ġwhole 2.6305401
Ġsystem 1.0007546
. 0.789146
ĠTo 3.5560675
Ġsum 2.3209996
Ġup 0.026708711
, 0.042945296
Ġthis 5.243723
Ġessay 0.244319
Ġoutlined 8.29786
Ġthe 0.49921402
Ġwhole 7.8595357
Ġstructure 3.8377006
Ġof 0.13399673
ĠEnglish 4.252492
Ġint 0.022373943
on 0.000249787
ation 0.00428853
Ġby 3.171525
Ġcomparison 5.174794
Ġbetween 0.44017634
Ġthe 0.7821929
Ġtraditional 1.0072833
Ġanalysis 2.8342588
Ġsystem 1.0757272
Ġused 4.6627264
Ġin 0.5933154
ĠRo 3.4734776
ach 0.0015041932
Ġ( 0.5119405
2000 0.011757344
) 0.018920394
Ġand 0.03246553
Ġthe 0.12718427
ĠTo 2.971731
BI 0.0021468934
Ġsystem 1.0977672
Ġwidely 2.1788557
Ġused 0.32788438
Ġin 0.09073568
ĠAmerica 2.990167
. 0.5912297
ĠThe 2.164039
Ġtraditional 4.113925
Ġsystem 0.86351895
, 3.1426866
Ġbased 4.2136307
Ġon 0.049444452
Ġthe 0.4961197
Ġconcepts 6.0142226
Ġof 0.21761286
Ġtones 4.0291095
Ġand 0.5974575
Ġunits 6.9787765
, 0.27202603
Ġis 1.492697
Ġeasy 3.3464932
Ġto 0.15525842
Ġread 4.79132
Ġand 0.66918564
Ġunderstand 1.1906155
Ġwith 2.5979173
Ġthe 2.03495
Ġuse 3.250831
Ġof 0.004439392
Ġvisual 4.453156
Ġsymbols 1.3749441
Ġand 2.5761352
Ġcan 4.1528587
Ġprovide 2.7443101
Ġrather 7.774076
Ġprimary 10.426725
Ġand 1.9263972
Ġclear 2.0576305
Ġcont 7.6384454
our 0.4493944
Ġabout 5.5174704
Ġthe 0.15691197
Ġwhole 2.5983815
Ġsystem 0.9047199
Ġalthough 4.19746
Ġit 0.34722382
Ġmay 2.9274988
Ġfail 3.0339663
Ġto 0.11574877
Ġanalyze 2.782791
Ġsome 1.8693442
Ġphenomena 5.027314
Ġin 1.516456
Ġthe 0.90269953
Ġchange 9.790211
ful 6.199493
Ġreality 6.599408
Ġand 3.3151243
Ġthe 2.5027373
Ġinconvenience 10.001476
Ġin 1.196609
Ġthe 1.6230795
Ġcomputer 2.5552795
Ġinput 3.7722106
Ġprocess 5.3509445
. 0.49502593
ĠIn 2.665141
Ġcontrast 0.3045376
, 0.029586405
Ġthe 0.74062145
Ġflexible 6.753242
Ġsystem 2.1071968
ĠTo 2.241573
BI 0.0023341156
Ġmay 3.6197734
Ġsucceed 5.7646937
Ġto 1.2137295
Ġtrack 7.976627
Ġdetailed 7.515156
Ġinformation 2.1079443
Ġoccurring 10.99731
Ġin 0.18299684
Ġspeech 3.8308127
Ġand 1.5613523
Ġgive 4.6009517
Ġa 0.57716894
Ġcomparatively 5.4375443
Ġaccurate 3.328753
Ġdescription 1.1154978
; 3.7656631
Ġhowever 0.35511154
, 0.01965961
Ġthere 4.9186935
Ġare 0.78935885
Ġmany 3.7982886
Ġabstract 3.003918
Ġsymbols 0.74988663
Ġrequiring 7.1545677
Ġadequate 6.459803
Ġcomprehension 7.259593
Ġalthough 6.1738214
Ġit 0.6681388
Ġis 0.77567357
Ġsimple 4.2029734
Ġfor 2.837171
Ġcomputer 1.670905
Ġoperation 4.8881984
. 0.11673337
ĠTherefore 2.5889466
, 0.04088828
Ġif 3.8892865
Ġthe 1.3908784
Ġfirst 5.9149427
Ġsystem 1.1490813
Ġis 0.67880535
Ġsupposed 5.758429
Ġto 0.04373033
Ġbe 0.41583738
Ġeasy 5.0116467
Ġfor 1.459768
Ġa 3.6933718
Ġgeneral 3.6944115
Ġintroduction 3.7025907
Ġand 1.5318918
Ġfundamental 8.830929
Ġlearning 2.893712
, 0.6377539
Ġthen 3.400295
Ġthe 0.23268375
Ġsecond 0.5970771
Ġone 0.84436923
Ġis 0.9159682
Ġmore 1.2747667
Ġsuitable 1.2812933
Ġfor 0.2053009
Ġadvanced 3.0529587
Ġresearch 1.9987646
Ġto 4.6656065
Ġcertain 9.331399
Ġextent 1.0541016
; 3.9351916
Ġnevertheless 2.4734974
, 0.013781517
Ġthey 2.9716117
Ġboth 1.4085331
Ġhave 1.0929351
Ġlimitation 6.7099223
Ġin 1.0418695
Ġdifferent 2.8115928
Ġaspects 0.8542017
. 0.9701865
ĠThere 5.1283407
Ġare 1.7177403
Ġstill 0.8718611
Ġother 2.7564044
Ġways 2.5187047
Ġof 1.7770315
Ġdescribing 2.0998926
Ġthe 0.90994
Ġnatural 4.5035663
Ġspeech 2.1852014
Ġand 2.4832404
Ġwill 6.4788275
Ġbe 0.38849735
Ġmore 3.677215
; 10.173583
Ġinevitably 8.602542
