Int 8.446076
on 6.585862
ation 0.24956737
Ġhas 5.539287
Ġbeen 1.4464525
Ġa 1.367187
Ġwide 8.731014
Ġand 3.4306464
Ġcommon 6.460284
Ġtopic 2.3772297
Ġin 1.8368511
Ġthe 1.4345309
Ġstudy 4.072203
Ġof 0.0342335
ĠEnglish 3.1499505
Ġphon 3.9378545
ology 0.30780143
. 0.9927425
ĠDifferent 7.143909
Ġfrom 5.438111
Ġsegment 9.257385
al 0.478482
Ġphon 2.37064
ology 0.17568536
Ġsuch 6.0155864
Ġas 0.038733225
Ġthe 2.354278
Ġstudy 4.486762
Ġof 0.0135355275
Ġphon 3.088292
em 1.3821045
es 0.01725287
Ġand 1.9295567
Ġsyll 1.9052606
ables 0.36800015
, 0.23144601
Ġint 1.1543299
on 0.0007837038
ation 0.017333832
Ġbelongs 7.6094136
Ġto 0.059728082
, 8.831934
Ġas 3.5703638
Ġwell 1.660143
Ġas 0.07436212
Ġstress 11.136421
, 1.9723026
Ġsu 8.807378
pr 0.45345563
ase 0.1030821
gment 0.006463313
al 0.16103244
Ġphon 0.23332317
ology 0.044137027
Ġ( 2.6833963
Ro 9.585397
ach 3.8741295
Ġ2000 5.5165577
). 0.8840186
ĠIt 3.0312474
Ġis 0.59756684
Ġa 2.1188726
Ġcomplicated 6.611273
Ġsystem 3.6634939
Ġin 3.0146587
ĠEnglish 5.0673394
Ġwhich 3.6833055
Ġplays 6.987302
Ġan 1.1432887
Ġessential 3.002573
Ġrole 0.13759576
Ġin 0.122805566
Ġthe 1.0768712
Ġuse 6.3460064
Ġof 0.062150538
Ġlanguage 3.3039901
Ġand 2.1474915
Ġit 3.9323554
Ġsometimes 7.6850767
Ġmay 5.2936816
Ġimply 8.190347
Ġmore 4.202783
Ġinformation 5.275397
Ġbeyond 7.364927
Ġthe 0.72127014
Ġreal 6.91542
Ġspeech 4.3187785
Ġrather 6.551221
Ġthan 0.024363033
Ġbe 5.105717
Ġa 1.9115736
Ġby 7.854096
product 2.2446408
Ġof 0.11144397
Ġthe 1.2792783
Ġutter 4.2293706
ance 0.09332637
. 0.61656123
ĠFor 4.261971
Ġaccurately 13.434358
Ġdescribing 2.346195
Ġthe 1.2575177
Ġint 1.0463024
on 0.0017489124
ation 0.17870869
Ġsystem 2.78909
, 0.856013
Ġvarious 5.3090963
Ġanalysis 6.3745365
Ġsystems 4.9167194
Ġand 2.8449779
Ġnot 7.8917756
ations 0.46844867
Ġhave 0.92110527
Ġbeen 0.041717935
Ġused 1.6414534
Ġwhich 4.8890266
Ġoften 5.212133
Ġhave 2.375981
Ġtheir 3.0540793
Ġown 0.35804176
Ġadvantages 3.3264701
Ġand 0.23942336
Ġdisadvantages 0.20322727
. 0.37596345
ĠThis 3.4884677
Ġessay 4.7470837
Ġwill 1.148093
Ġbasically 8.70121
Ġintroduce 3.7823732
Ġtwo 4.7728763
Ġof 1.5491084
Ġthe 0.7062964
Ġanalysis 6.2494802
Ġsystems 0.14605789
Ġ- 5.179602
Ġthe 1.7082088
Ġtraditional 4.963191
ĠBritish 6.206043
Ġanalysis 3.8768365
Ġof 2.6609502
ĠEnglish 3.8747969
Ġint 0.39311573
on 0.0004871615
ation 0.009288479
Ġpresented 7.4165235
Ġby 0.49399135
ĠPeter 6.97819
ĠRo 4.047294
ach 0.018242974
Ġ( 1.3913958
2000 0.56082267
) 0.1298738
Ġand 0.07501234
Ġthe 0.3013023
Ġrelatively 8.4895315
Ġnew 1.1437174
Ġnotation 7.5978403
Ġsystem 1.7060227
ĠTo 11.374366
BI 8.293902
Ġused 5.19087
Ġwidely 8.84241
Ġin 0.8833671
Ġthe 0.8052246
ĠU 4.541865
. 0.009382391
S 0.055002697
.; 6.5780506
Ġfurthermore 7.001826
, 0.327013
Ġit 1.1158574
Ġattempts 5.5070972
Ġto 0.029673096
Ġevaluate 5.3961606
Ġthe 0.51604986
Ġbenefits 4.805778
Ġand 0.3589446
Ġdrawbacks 1.1001062
Ġof 0.07699808
Ġthose 6.1250143
Ġtwo 0.921049
Ġsystems 0.58337486
Ġby 3.7171443
Ġa 4.8499155
Ġcomparison 1.7388936
Ġbetween 2.4998074
Ġthem 1.3020806
. 0.40622163
ĠAs 5.1120086
Ġa 1.4644412
Ġkind 6.9720397
Ġof 0.018748626
Ġaut 11.3755865
ose 3.7904053
gment 0.56880695
al 0.45815253
Ġapproach 4.1767054
Ġto 1.6937677
Ġthe 1.28987
Ġint 1.7791083
on 0.0012273083
ation 0.03857809
Ġsystem 0.7261903
, 0.18528719
ĠTo 1.6101227
BI 0.0026667083
Ġis 1.3622817
Ġoriginated 9.948198
Ġby 0.60815406
ĠPierre 7.3517528
h 10.384927
umber 0.4369361
t 0.04251457
Ġ( 4.068733
1980 3.8416374
: 5.7795634
Ġ87 7.309745
Ġin 8.700342
ĠCr 9.411434
utt 5.865771
end 0.055164114
en 0.027537698
Ġ1997 4.757806
) 1.097972
Ġand 0.5760254
Ġused 3.9704967
Ġmostly 5.0784187
Ġin 0.37059456
Ġthe 0.6085631
ĠAmerican 4.735081
Ġacademic 5.118987
Ġresearch 3.8733354
. 1.2904094
ĠIt 2.1663475
Ġapplies 6.6813493
Ġonly 4.100474
Ġtwo 3.6638567
Ġtones 6.605225
, 2.0237086
ĠHigh 9.080278
Ġ( 3.0029652
H 2.7444682
) 0.17492524
Ġand 0.048676815
ĠLow 0.02854325
Ġ( 0.010822495
L 0.020130828
) 0.97956365
Ġto 2.2600884
Ġthe 1.2766929
Ġanalysis 6.0547175
Ġand 3.5017734
Ġpresents 5.966591
Ġa 1.4883573
Ġquite 6.2213454
Ġnew 5.1316023
Ġview 5.1771455
Ġof 0.8483008
Ġthe 1.1963516
Ġint 0.51866287
on 0.0015269405
ation 0.029945439
Ġsystem 0.28417388
. 0.74576473
ĠIt 2.5589538
Ġis 1.1170915
Ġnecessary 7.012986
Ġto 0.07416022
Ġintroduce 3.5690281
Ġfive 7.169041
Ġtypes 3.9101815
Ġof 0.030117603
Ġsymbols 5.8369737
Ġused 2.4352224
Ġin 0.45281917
ĠTo 1.3483057
BI 0.0013443439
Ġ( 2.8259094
Cr 2.2230508
utt 0.015316201
end 0.0006126357
en 0.0019947055
Ġ1997 0.1293442
: 1.1683315
Ġ60 5.7722797
): 2.0523362
ĠOther 9.766756
Ġsymbols 2.0531209
Ġsuch 4.2520623
Ġas 0.004493158
Ġ'' 9.899822
Ġ( 4.252444
shown 8.679682
Ġas 2.5278256
Ġ' 2.5263543
H 4.4746866
' 1.1339806
Ġand 2.2149608
Ġ' 0.12133708
L 0.133127
') 1.0122904
Ġand 1.7356156
Ġ' 1.0689554
% 6.2446156
' 0.34312907
Ġ( 0.7124477
shown 0.15543902
Ġas 0.027860511
Ġ' 0.15771385
H 1.0229108
% 1.6062878
' 1.0594966
Ġand 0.5748797
Ġ' 0.020909583
L 0.07468609
% 0.3504226
') 0.67019045
Ġrepresents 7.0522313
Ġnamely 12.5484
Ġ' 3.4343562
pause 9.339673
- 4.97436
type 4.7098145
' 0.3279788
Ġboundary 11.761819
Ġ( 2.9458296
|| 12.570242
) 1.1897187
Ġand 1.0156238
Ġ' 0.29344404
non 5.8499746
- 0.10206648
pause 1.4693171
' 1.6224679
Ġboundary 0.7844056
Ġ( 0.1239871
| 1.56052
) 1.0152531
Ġas 3.2931273
Ġthey 3.7781036
Ġare 0.78124636
Ġmentioned 5.945051
Ġin 0.5692925
ĠRo 3.6923885
ach 0.0029531973
Ġ( 0.8353278
2000 0.28666085
); 4.8332267
Ġhowever 5.754109
, 0.11089261
Ġ'' 5.460401
Ġcan 4.8614793
Ġoccur 6.382901
Ġbefore 5.754491
Ġboth 4.877029
Ġboundaries 2.7890382
Ġand 1.7968018
Ġ' 3.3856487
% 2.0159185
' 0.19770105
Ġonly 4.705992
Ġappears 4.9035983
Ġbefore 0.67724746
Ġthe 0.8864962
Ġ' 2.8263655
pause 0.44711268
- 0.876866
type 0.0361355
' 0.089616284
Ġboundary 0.116222546
Ġ( 2.2230327
Cr 1.2876494
utt 0.0030471806
end 0.00018772435
en 0.0068852585
Ġ1997 0.03404397
). 2.8684258
ĠTherefore 5.021136
, 0.15098248
Ġif 5.438308
Ġthe 1.4341342
Ġtone 4.986736
Ġunit 7.9517646
Ġ( 3.3304038
2 7.0129004
) 1.1562692
Ġis 0.67720556
Ġanalyzed 4.683385
Ġin 2.2692988
ĠTo 1.8161045
BI 0.0019362998
, 0.38291657
Ġit 1.2972603
Ġmay 3.697576
Ġbe 0.79690665
Ġlike 8.435208
Ġthis 1.5770335
. 3.866496
Ġ( 3.1256125
2 0.99248457
) 0.05924226
Ġ( 3.026579
10 6.836752
) 0.4055309
ĠAfter 7.3517027
Ġthe 1.5480528
Ġrough 9.882723
Ġintroduction 3.6831238
Ġof 0.6528154
Ġboth 6.5739727
Ġsystems 2.641673
, 0.39360008
Ġthe 1.5148427
Ġadvantages 6.1783614
Ġand 0.59906346
Ġdisadvantages 0.17928982
Ġof 0.23128887
Ġeach 0.68631023
Ġcan 3.9834464
Ġbe 0.029993592
Ġnoticed 7.1065607
Ġwith 4.853536
Ġa 1.8686746
Ġcomparison 2.0646386
Ġbetween 0.86244386
Ġthem 0.7451389
. 0.25752884
Ġ1 5.784934
. 0.24576981
ĠThe 1.9627731
Ġapplication 8.677839
Ġof 0.078029
Ġdifferent 5.322851
Ġnot 5.875716
ations 0.02070851
Ġusually 7.0309525
Ġconve 9.2589855
ys 0.0057675974
Ġa 1.7890432
Ġdirect 6.5871344
Ġimpression 4.4029007
Ġto 2.5405974
Ġreaders 5.974428
. 1.3314726
ĠUnd 10.51753
en 3.296707
iably 0.0848709
, 0.08692024
Ġthe 1.3077561
Ġsymbols 7.1828794
Ġsuch 5.6863456
Ġas 0.0037754737
Ġ' 0.68671197
Ġ', 8.377436
Ġ' 0.15584287
Ġ' 1.1189216
Ġand 0.649871
Ġ' 0.16390122
Ġ' 0.322497
Ġdo 4.402952
Ġprovide 4.5016685
Ġa 1.0277846
Ġsimple 4.5375566
Ġand 1.0721992
Ġvisual 6.606882
Ġguidance 8.1468
Ġfor 1.6687163
Ġthe 0.4988701
Ġreaders 2.915446
Ġof 3.4514773
Ġcourse 6.64671
Ġwith 6.251201
Ġappropriate 7.272868
Ġexplanation 5.0924163
Ġbut 3.984683
Ġare 4.339151
Ġquite 4.2893806
Ġdifficult 2.104123
Ġto 0.20131078
Ġtype 7.4749155
Ġin 2.0163193
Ġcomputers 8.008826
. 0.68743634
ĠCont 10.3426895
rarily 1.7358172
, 0.14798714
Ġ' 3.2480328
Ġ* 6.7657924
Ġ' 0.78115827
Ġ' 4.0571513
Ġ! 8.045359
Ġ', 3.3019598
Ġ' 0.20240697
Ġ% 3.3205292
Ġ', 2.394753
Ġetc 4.078274
. 0.3156062
Ġare 1.3391522
Ġquite 2.7193565
Ġmeaningless 7.9716215
Ġand 1.7165928
Ġabstract 8.174346
Ġcodes 8.894345
Ġwhich 2.2129862
Ġare 1.598162
Ġdifficult 1.6664742
, 6.390761
Ġespecially 4.2286024
, 3.1861074
Ġfor 0.9894587
Ġlearners 5.9904504
Ġto 1.6832312
Ġremember 3.8741872
, 2.9305835
Ġwhich 3.7024562
Ġis 1.8855767
Ġalso 3.6694932
Ġagreed 9.112268
Ġby 0.726207
ĠRo 1.6266248
ach 0.00059772714
Ġ( 0.14038476
2000 0.034064263
) 2.088578
Ġand 1.1605167
Ġ( 6.369552
Cr 1.2807864
utt 0.009826341
end 0.00033176786
en 0.00318709
Ġ1997 0.026957287
); 6.0835133
Ġhowever 2.043412
, 0.020492934
Ġthe 1.797701
Ġsystem 5.4961743
Ġis 1.9303751
Ġeasy 4.4343324
Ġto 0.2202094
Ġbe 3.007264
Ġused 1.4858662
Ġin 2.0438662
Ġcomputers 3.7974167
. 1.3301727
Ġ2 1.1543772
. 0.004283502
ĠFor 4.557606
Ġthe 1.363157
Ġattempt 9.415716
Ġto 0.4024092
Ġdescribe 3.1775398
Ġthe 0.48905918
Ġnatural 7.0082703
Ġspeech 2.2670245
, 1.795608
Ġthe 1.2623459
ĠRo 8.061117
ach 0.00307809
's 2.5516355
Ġsystem 2.3700242
Ġseems 5.227047
Ġto 0.6251606
Ġhave 3.0994
Ġmore 2.549017
Ġlimitation 8.980661
Ġthan 1.0117679
ĠTo 2.0804791
BI 0.0013128925
. 1.1580154
ĠOne 5.044552
Ġis 4.227864
Ġthe 1.0969853
Ġanalysis 7.2518373
Ġon 6.5434175
Ġmore 7.02084
Ġthan 0.2640927
Ġone 0.7739039
Ġtone 0.7067805
Ġmovement 10.057505
Ġin 2.7719302
Ġa 1.5330093
Ġtone 3.6412814
Ġunit 0.8472964
. 1.2823974
ĠRo 4.1140547
ach 0.0011102275
Ġgenerally 8.308443
Ġsummarizes 7.611828
Ġfive 6.5109844
Ġsituations 6.937524
Ġas 4.3048134
Ġmentioned 5.5289526
Ġabove 2.3567188
; 3.2084026
Ġnevertheless 4.5936413
, 0.0381303
Ġthe 1.6921424
Ġnatural 5.941106
Ġint 5.103644
on 0.0015090901
ation 0.017727567
Ġsystem 2.148638
Ġis 1.5814514
Ġnot 1.7861501
Ġas 2.99729
Ġsimple 2.086473
Ġas 0.40444648
ĠRo 2.4463954
ach 0.0015420424
's 0.71282536
Ġgeneral 8.600574
ization 1.7022645
. 1.1585386
ĠConsidering 6.7738304
Ġthe 0.6058748
Ġfollowing 5.0287986
Ġexample 2.1773007
Ġ( 3.266849
11 3.114008
) 1.0907582
Ġindicated 9.092162
Ġin 1.2679052
ĠTo 2.4304965
BI 0.0027949717
Ġsystem 6.9266186
Ġby 5.6085377
ĠCr 3.9237592
utt 0.004384194
end 0.00048060223
en 0.003656358
Ġ( 0.61515075
1997 0.021305341
: 0.9344012
Ġ63 3.5615942
), 0.59760946
Ġit 1.7642186
Ġis 1.066462
Ġdifficult 4.261538
Ġto 0.14656611
Ġuse 4.409131
ĠRo 1.977841
ach 0.0030269725
's 0.089996435
Ġsystem 0.4865006
Ġto 2.1619718
Ġanalyze 2.6016278
Ġthe 0.6856986
Ġtone 4.315613
Ġunit 1.1169398
. 1.7595023
Ġ( 0.8433478
11 0.05473799
) 0.00915926
ĠAccording 8.485622
Ġto 0.011104281
ĠRo 0.9958297
ach 0.0012107797
Ġ( 0.5549722
2000 0.031959116
), 1.2506912
Ġthere 3.5710068
Ġis 1.3555394
Ġonly 2.5004213
Ġone 0.36571497
Ġtone 2.084181
Ġmovement 2.1894233
Ġcarried 8.870652
Ġby 1.4080347
Ġthe 0.7706024
Ġton 4.9904356
ic 1.0391672
Ġsyll 3.4107554
able 0.03520945
, 2.219272
Ġso 3.4069073
Ġthe 1.3413242
Ġpart 7.097555
Ġfrom 5.8618827
Ġdidn 12.599327
't 0.05772749
Ġto 6.068544
Ġto 4.9017205
Ġshould 4.303371
Ġbe 0.3135148
Ġconsidered 3.3959582
Ġas 0.54760176
Ġa 1.2102216
Ġlow 5.5491
Ġhead 12.280398
Ġif 9.156333
Ġgo 10.26003
Ġis 2.3510518
Ġthe 2.3866715
Ġton 2.0241127
ic 0.010228756
Ġsyll 0.58189714
able 0.003600902
. 0.7039454
ĠThus 4.310528
Ġthere 6.0160775
Ġshould 3.3104873
Ġbe 0.14610259
Ġno 2.0760622
Ġtone 3.6786318
Ġmovement 0.39915022
Ġbefore 4.502317
Ġthe 0.81028575
Ġton 2.3487065
ic 0.0036551615
Ġsyll 0.14894451
able 0.010394546
Ġcarrying 8.778244
Ġa 2.7949579
Ġrising 6.2956023
Ġtone 0.7369612
Ġsuch 5.3607564
Ġas 0.020619063
Ġ( 3.40361
9 4.938007
a 4.593986
), 2.4954872
Ġbut 4.720019
Ġit 2.4305983
Ġdoes 3.877765
Ġnot 2.2365048
Ġmake 4.760617
Ġsense 0.33508268
Ġin 2.833224
Ġ( 3.3621922
11 0.2025336
). 0.593472
ĠThe 2.5996428
Ġpossible 6.9722247
Ġsolution 3.45978
Ġis 1.1686568
Ġeither 5.837106
Ġto 0.7822605
Ġadmit 7.1954966
Ġthe 1.22122
Ġexistence 4.4923267
Ġof 0.019925531
Ġmore 4.061065
Ġthan 0.40181527
Ġone 0.048712797
Ġton 2.8858943
ic 0.04021859
Ġsyll 0.121308684
able 0.017893936
Ġin 1.7263598
Ġa 1.2117234
Ġtone 0.28269798
Ġunit 0.033439003
, 1.1976511
Ġas 3.6625745
Ġthe 3.1518123
Ġproblem 4.8543835
Ġraised 7.4776645
Ġby 0.56879044
ĠRo 0.47691464
ach 0.00071808934
Ġhimself 7.3419466
Ġ( 0.97395694
2000 0.36506844
: 0.92579323
Ġ178 7.4684544
) 1.5949007
Ġor 0.7772392
Ġto 0.51899564
Ġdivide 5.97598
Ġ( 5.3791013
11 2.1229398
) 0.07941694
Ġinto 0.18726285
Ġthree 2.5064948
Ġtone 2.4518354
Ġunits 0.6221286
Ġbut 7.6651545
Ġit 3.7066505
Ġwill 4.322432
Ġlooks 10.705305
Ġquite 3.1557157
Ġfar 6.5588355
fetched 4.4715767
. 1.3195952
ĠAnother 4.5359063
Ġlimitation 2.177979
Ġis 1.3289429
Ġto 4.6223974
Ġanalyze 2.7309813
Ġthe 0.9575208
Ġdetail 10.3004465
Ġin 3.4618247
Ġa 2.1250925
Ġrising 9.458245
Ġor 3.1829896
Ġa 2.9277062
Ġfalling 0.367918
Ġpitch 5.0983195
Ġmovement 4.5194836
, 2.048034
Ġfor 3.5391572
Ġinstance 2.1730192
, 0.50698787
Ġthe 1.6936831
Ġhigh 5.2044396
Ġfall 7.7654443
Ġand 2.9106762
Ġlow 1.4519953
Ġfall 1.8045954
. 2.6622646
ĠAs 3.7866507
Ġshown 4.1484528
Ġin 0.29161197
Ġthe 1.7105374
Ġexample 1.6809378
Ġ( 0.43494084
4 5.046078
) 0.6224169
Ġwhere 6.116372
Ġmight 8.851022
Ġcarries 8.326486
Ġa 0.8136523
Ġfalling 2.239313
Ġtone 0.84841794
, 0.6869681
Ġone 4.497934
Ġmay 2.1094809
Ġstill 5.47335
Ġfail 5.442152
Ġto 0.09011716
Ġded 6.9739566
uce 0.0037218065
Ġthe 0.61966825
Ġcorrect 4.642423
Ġpitch 2.5100803
Ġheight 8.732129
Ġof 1.9587023
Ġmight 7.81222
Ġbecause 3.4855013
Ġthe 1.4911541
Ġsymbol 6.2503414
Ġ' 1.2080745
Ġ' 1.5191364
Ġdoes 2.9507399
Ġnot 0.05931531
Ġindicate 2.7420957
Ġwhether 4.920028
Ġa 2.4169388
Ġhigh 3.369295
Ġfall 2.3252048
Ġor 0.34882072
Ġa 0.0845379
Ġlow 0.2245697
Ġfall 0.13780938
Ġalthough 8.197793
ĠRo 5.1376834
ach 0.00066935836
Ġused 5.388127
Ġ'' 5.960113
Ġonce 8.887042
Ġto 2.9419804
Ġindicate 0.8888594
Ġthe 1.47236
Ġfull 6.537679
Ġrise 2.678569
Ġ( 2.8420045
Ro 2.4479442
ach 0.00065456616
Ġ2000 0.10827869
: 0.17165668
Ġ155 5.691826
). 0.40528435
ĠIn 2.8581815
Ġcontrast 3.6459212
, 0.29301888
ĠTo 1.6057171
BI 0.0011218049
Ġhas 3.1016915
Ġa 1.4364295
Ġcon 9.776869
natural 8.339411
Ġmerit 12.482313
Ġfrom 5.926134
Ġits 2.6347234
Ġsimple 4.0505023
Ġstructure 3.312026
Ġthat 4.117981
Ġit 1.5413433
Ġis 1.5620933
Ġmore 3.9699106
Ġflexible 2.8151412
Ġto 2.8937144
Ġdescribe 3.1179938
Ġdifferent 3.9291787
Ġlevels 4.2113686
Ġof 0.20387489
Ġthe 2.300112
Ġpitch 2.0357327
Ġheight 5.940507
. 1.1057289
ĠSo 5.6122785
Ġa 4.3311296
Ġhigh 3.5086439
Ġfall 1.1757907
Ġand 2.162049
Ġa 0.19529396
Ġlow 0.23575848
Ġfall 0.04294038
Ġcan 1.8690559
Ġbe 0.2671702
Ġillustrated 6.2665987
Ġpresented 10.050178
Ġas 1.7432467
ĠH 8.120888
* 4.1269045
L 3.1642957
- 5.2336245
L 1.3235892
% 4.705983
Ġand 2.2065187
Ġ! 7.914935
H 1.7034662
* 2.1351273
L 0.15322821
- 0.2764266
L 0.43057698
% 0.32864252
Ġin 2.6845322
Ġtone 7.1433177
Ġunits 0.63520443
Ġ( 1.1749055
Cr 2.5556004
utt 0.0037277294
end 0.00025586665
en 0.013301199
Ġ1997 0.03317945
: 0.095514424
Ġ63 1.9573387
). 0.4795103
ĠHence 6.47103
, 0.20944874
ĠTo 2.006434
BI 0.001278873
Ġseems 4.117558
Ġable 6.5865383
Ġto 0.034681212
Ġbe 2.3749864
Ġapplied 2.1104033
Ġmore 2.9350638
Ġsuccessfully 4.80141
Ġand 3.952946
Ġextensively 6.554215
Ġin 1.3675566
Ġthe 0.97270477
Ġdescription 4.975503
Ġof 0.06624219
Ġint 2.2659898
on 0.0014130446
ation 0.06637148
Ġin 2.5365477
ĠR 9.525815
. 2.541459
P 4.213259
., 4.0084496
ĠG 5.127395
. 0.16561173
A 3.0414965
. 0.412638
Ġand 1.0804702
ĠAustralian 8.571312
ĠEnglish 1.4028816
Ġ( 2.1855023
Cr 1.9439973
utt 0.0064522154
end 0.00029366894
en 0.006876495
Ġ1997 0.044545453
) 3.4589012
Ġalthough 4.4166536
Ġit 1.4069737
Ġhas 2.598651
Ġnot 2.9414847
Ġbeen 0.590344
Ġapplied 2.366463
Ġvery 4.411261
Ġwell 3.0995278
Ġinto 6.882112
Ġall 6.5346403
Ġthe 1.5286782
Ġint 4.330969
on 0.009072226
ation 0.20664766
Ġsystems 1.0396641
Ġin 2.2386498
Ġa 5.752807
Ġstatistic 12.489765
Ġresult 9.426227
Ġ( 1.6066077
Ohio 11.803033
ĠState 1.2081735
ĠUniversity 0.24571472
ĠDepartment 5.059378
Ġof 0.014729292
ĠL 1.0676297
ingu 0.016862415
istics 0.011303856
Ġ2004 4.598993
). 0.4877288
Ġ3 1.5795735
. 0.0039914814
ĠWith 5.476889
Ġthe 0.9514892
Ġdrawback 6.4858274
Ġin 4.2650104
ĠRo 2.2144601
ach 0.0021748494
's 0.38697875
Ġsystem 0.7650154
Ġdisc 12.55927
ss 10.851532
ed 3.8776073
Ġabove 0.66851735
, 0.15906842
Ġit 1.913601
Ġstill 5.063309
Ġhad 6.631682
Ġthe 2.4529872
Ġbenefit 4.1115117
Ġof 0.3610424
Ġits 3.656101
Ġsimple 3.031812
Ġgeneral 6.85242
ization 0.098898284
Ġabout 5.637775
Ġthe 0.82956827
Ġint 1.596507
on 0.0023431361
ation 0.013296245
Ġbecause 6.931364
Ġit 0.76249206
Ġprovided 5.3453255
Ġa 0.6123312
Ġcomparatively 8.497774
Ġclear 3.0911386
Ġprofile 8.776747
Ġof 0.6219241
Ġthe 0.5225451
Ġreal 6.2442656
Ġsystem 7.6982775
Ġwith 4.281028
Ġstraightforward 7.2492485
Ġnot 3.9840803
ations 0.19643229
Ġand 2.1504576
Ġestablished 8.174264
Ġan 3.7832441
Ġeasy 3.0008013
Ġaccess 4.618352
Ġto 0.4929149
Ġthe 0.49688417
Ġcomplicated 7.5188127
Ġint 2.6882513
on 0.0033766015
ation 0.039592154
Ġsystem 0.88459903
, 4.0092936
Ġat 5.25467
Ġleast 0.3609168
Ġfor 1.3105104
Ġthe 1.0251843
Ġlearners 3.9728906
. 0.7827321
ĠNonetheless 7.0329337
, 0.026726032
ĠTo 1.6638243
BI 0.0020029468
Ġfocuses 8.144357
Ġon 1.0822622
Ġa 1.9315395
Ġfull 6.8405986
- 2.4706385
scale 2.2800088
Ġdescription 0.86823463
Ġand 3.335812
Ġmakes 5.6431394
Ġit 1.8251536
Ġa 3.6066847
Ġlittle 3.0050383
Ġdifficult 2.2478893
Ġto 0.37476477
Ġsummarize 6.2695494
Ġthe 0.82216626
Ġanalysis 5.266185
Ġresults 4.3042903
Ġand 3.3318763
Ġpoint 6.6201777
Ġout 0.58122754
Ġthe 0.5469474
Ġoutline 10.391708
Ġof 0.19670972
Ġthe 0.37578595
Ġwhole 3.578129
Ġsystem 0.8017474
. 0.6172166
ĠTo 2.6734307
Ġsum 8.759655
Ġup 0.20406309
, 0.24648105
Ġthis 3.8537257
Ġessay 0.894321
Ġoutlined 10.663208
Ġthe 0.5831452
Ġwhole 7.4308558
Ġstructure 3.5150523
Ġof 0.2629374
ĠEnglish 3.9894574
Ġint 0.088211276
on 0.0009080253
ation 0.0010053325
Ġby 3.4196775
Ġcomparison 5.150011
Ġbetween 0.8325614
Ġthe 1.0273342
Ġtraditional 2.3533041
Ġanalysis 4.2503724
Ġsystem 3.2171917
Ġused 4.8720837
Ġin 0.92310905
ĠRo 2.2781706
ach 0.0040030926
Ġ( 1.2358614
2000 0.03817377
) 0.09740527
Ġand 0.05669413
Ġthe 0.5190497
ĠTo 2.0300057
BI 0.0028716624
Ġsystem 0.75123394
Ġwidely 6.8020678
Ġused 0.20651479
Ġin 0.28075808
ĠAmerica 5.344765
. 0.69394016
ĠThe 1.8071201
Ġtraditional 4.71268
Ġsystem 2.3579123
, 3.2650552
Ġbased 3.5546937
Ġon 0.078587666
Ġthe 1.0018649
Ġconcepts 6.72033
Ġof 0.4055226
Ġtones 6.4954724
Ġand 0.80665696
Ġunits 5.6232524
, 0.48904005
Ġis 1.7937549
Ġeasy 4.2479334
Ġto 0.081066616
Ġread 4.301865
Ġand 0.47566867
Ġunderstand 1.8400763
Ġwith 4.475819
Ġthe 1.7712783
Ġuse 3.6510231
Ġof 0.0053892047
Ġvisual 7.9078317
Ġsymbols 1.8863755
Ġand 1.5876148
Ġcan 4.240188
Ġprovide 3.7196562
Ġrather 8.476261
Ġprimary 11.1609745
Ġand 2.4078207
Ġclear 2.5379343
Ġcont 8.101325
our 2.240496
Ġabout 7.402242
Ġthe 0.16669838
Ġwhole 3.6095207
Ġsystem 0.6899544
Ġalthough 5.889318
Ġit 0.8431881
Ġmay 2.4436145
Ġfail 4.219634
Ġto 0.33709607
Ġanalyze 5.0559077
Ġsome 3.177891
Ġphenomena 6.4180064
Ġin 2.2687016
Ġthe 1.2283742
Ġchange 8.215662
ful 9.809601
Ġreality 6.7810564
Ġand 4.2614894
Ġthe 2.5918481
Ġinconvenience 10.513578
Ġin 2.9630396
Ġthe 1.0786301
Ġcomputer 7.683702
Ġinput 5.484254
Ġprocess 4.041176
. 0.42525178
ĠIn 2.974947
Ġcontrast 0.8634781
, 0.15598673
Ġthe 0.7981101
Ġflexible 10.022964
Ġsystem 2.9213872
ĠTo 3.4516988
BI 0.0012883609
Ġmay 4.060009
Ġsucceed 7.044917
Ġto 2.175267
Ġtrack 9.880316
Ġdetailed 8.542442
Ġinformation 2.24538
Ġoccurring 10.342361
Ġin 0.2940118
Ġspeech 4.4066286
Ġand 1.5146447
Ġgive 4.088969
Ġa 0.95344526
Ġcomparatively 7.71617
Ġaccurate 2.9559321
Ġdescription 1.3700591
; 6.2475553
Ġhowever 0.8410573
, 0.035153884
Ġthere 3.7432497
Ġare 0.9854685
Ġmany 3.0442963
Ġabstract 9.786082
Ġsymbols 2.8683214
Ġrequiring 8.112148
Ġadequate 7.40061
Ġcomprehension 6.0750823
Ġalthough 8.050891
Ġit 1.0860289
Ġis 1.1789113
Ġsimple 5.5170484
Ġfor 3.5820768
Ġcomputer 5.1919584
Ġoperation 6.010164
. 0.45355737
ĠTherefore 3.6860435
, 0.06779736
Ġif 5.0154967
Ġthe 0.9169234
Ġfirst 6.564383
Ġsystem 2.2002327
Ġis 0.65831757
Ġsupposed 7.0157347
Ġto 0.035141785
Ġbe 0.4994396
Ġeasy 5.01862
Ġfor 2.9248612
Ġa 2.9354632
Ġgeneral 3.602043
Ġintroduction 5.629592
Ġand 2.2832272
Ġfundamental 8.471385
Ġlearning 5.3856955
, 1.1471955
Ġthen 2.117955
Ġthe 0.5729119
Ġsecond 0.91449976
Ġone 2.1634536
Ġis 1.3901807
Ġmore 2.105227
Ġsuitable 0.95936894
Ġfor 0.46092978
Ġadvanced 3.2645614
Ġresearch 4.950622
Ġto 5.592222
Ġcertain 9.2231045
Ġextent 1.4706835
; 3.3220813
Ġnevertheless 2.3323665
, 0.040179003
Ġthey 5.5314274
Ġboth 2.226913
Ġhave 1.5755837
Ġlimitation 9.534075
Ġin 1.4177707
Ġdifferent 4.4184194
Ġaspects 0.80299777
. 0.77440345
ĠThere 5.514545
Ġare 0.9936422
Ġstill 3.6350863
Ġother 3.9442816
Ġways 4.7928224
Ġof 1.5354581
Ġdescribing 1.854073
Ġthe 0.80991536
Ġnatural 2.9912477
Ġspeech 0.93354356
Ġand 2.3514874
Ġwill 6.689737
Ġbe 0.4150783
Ġmore 4.8916507
; 12.460058
Ġinevitably 10.082812
