Def 8.8154745
ining 2.9562938
Ġethnicity 10.60047
Ġis 2.2372408
Ġa 1.4786764
Ġcontentious 4.5247383
Ġissue 0.7343142
Ġbecause 5.3342896
Ġthere 2.6958811
Ġare 0.65349174
Ġa 3.0170674
Ġnumber 1.3051753
Ġof 0.0054592625
Ġways 3.2974212
Ġin 2.2551455
Ġwhich 0.004382878
Ġit 1.7024796
Ġis 1.6994025
Ġdefined 1.1286469
, 1.8876545
Ġand 1.0559579
Ġit 2.741678
Ġis 0.78269625
Ġoften 2.5891356
Ġused 2.715963
Ġinterchange 2.5675414
ably 0.00024370644
Ġwith 0.53129685
Ġrace 1.0788301
Ġeven 7.601437
Ġthough 0.587889
Ġthey 2.4588668
Ġare 0.29967698
Ġnot 1.8209965
Ġthe 0.64035887
Ġsame 0.019411566
Ġthing 0.42548025
. 0.08998451
ĠIn 2.7842667
Ġa 3.2183492
Ġbroad 4.750394
Ġsense 0.07898629
Ġof 5.2640486
Ġthe 0.2287211
Ġterm 0.58818334
, 0.2551745
Ġethnicity 1.8362546
Ġis 0.56976193
Ġa 1.4071002
Ġterm 3.5058234
Ġwhich 3.722573
Ġrepresents 5.6344843
Ġsocial 4.894655
Ġgroups 2.5049465
Ġwith 3.6049209
Ġa 1.6877385
Ġshared 2.5402586
Ġhistory 2.0112138
, 0.84635043
Ġsense 8.5116415
Ġof 0.0068337675
Ġidentity 1.2471291
, 0.44938982
Ġgeography 6.1892085
Ġand 1.2348607
Ġcultural 1.9694633
Ġroots 4.385958
Ġwhich 3.9328122
Ġmay 2.899486
Ġoccur 7.0858555
Ġdespite 7.3154325
Ġracial 6.1708474
Ġdifference 5.0248427
. 0.36793542
ĠIt 2.6076493
Ġis 0.47802326
Ġoften 3.2093534
Ġused 0.73080677
Ġto 1.2012017
Ġdescribe 1.1422901
Ġthose 4.2926946
Ġwho 1.5470897
Ġare 1.3047581
Ġof 1.893546
Ġa 0.93935657
Ġminority 4.8678083
Ġin 2.5668411
Ġthe 2.4363046
Ġcountry 1.9572854
Ġthey 2.972997
Ġlive 0.5541722
Ġin 0.13355964
, 0.9232853
Ġhence 6.872476
Ġthe 1.0147761
Ġterm 0.94221306
Ġethnic 2.9341812
Ġminority 1.3381122
. 0.35124826
ĠThere 4.0711427
Ġare 0.44630766
Ġhigher 10.111354
Ġrates 3.8599374
Ġof 0.0379586
Ġmental 6.9043694
Ġillness 1.3605996
Ġamongst 2.4704986
Ġminority 4.5112247
Ġethnic 0.667318
Ġgroups 0.26107767
Ġin 2.1044428
ĠBritain 3.3301313
, 1.6231878
Ġspecifically 5.1755424
Ġdiagnosed 10.454894
Ġschizophrenia 5.5492435
Ġamongst 4.9182806
ĠAf 4.079949
ro 0.023346124
ĠCaribbean 4.3441405
Ġmen 4.2403693
Ġand 1.6860471
Ġsom 10.884872
at 1.4179442
ization 2.1922338
Ġamongst 1.5067009
Ġfemale 6.968022
ĠSouth 5.052864
ĠAsian 0.94080913
Ġmigrants 3.6039968
Ġ( 4.311441
Ann 8.755032
and 3.1056755
ale 0.21383394
, 1.390191
Ġ2000 3.697385
). 0.19418806
ĠThe 2.816532
Ġreasons 6.586559
Ġfor 0.43262598
Ġhigh 6.6120667
Ġrates 0.1953441
Ġof 0.05495811
Ġschizophrenia 2.533539
Ġamongst 2.3552139
ĠAf 0.91626614
ro 0.002903523
ĠCaribbean 0.056352798
Ġmen 0.45187992
Ġwill 6.922654
Ġbe 0.33654702
Ġexplored 1.787572
Ġfirst 7.7052636
. 0.925139
ĠThese 6.1864552
Ġstatistics 5.138327
Ġhowever 6.1116924
, 1.1661301
Ġmay 3.292813
Ġnot 1.3544171
Ġbe 0.64729613
Ġdue 5.671699
Ġto 0.10504201
Ġactual 6.6864004
Ġdifferences 2.9365945
Ġbut 3.9122126
Ġdue 3.366709
Ġto 0.012250741
Ġarte 11.5527315
fact 1.2182224
ual 0.5613926
Ġexplanations 6.2216883
. 1.4151769
ĠThe 2.1664271
Ġethnicity 6.1501966
Ġof 0.44589537
Ġthe 1.6057119
Ġpeople 3.1310003
Ġis 4.4431744
Ġoften 1.944286
Ġdetermined 4.73902
Ġby 0.3062107
Ġtheir 1.6942931
Ġplace 2.9393654
Ġof 0.027082514
Ġbirth 0.93475586
Ġeven 6.7057753
Ġif 0.6931375
Ġthis 2.7225935
Ġis 0.66045666
Ġnot 0.9315868
Ġwhere 5.196877
Ġthey 0.27684948
Ġhave 2.4500916
Ġspent 3.3906312
Ġmost 2.1186228
Ġof 0.021425113
Ġtheir 0.0052156122
Ġlives 0.82471514
. 0.3257943
ĠAlso 5.724925
, 0.38153297
Ġethnic 5.0712447
Ġgroup 3.644607
ings 3.2767835
Ġsuch 3.2357378
Ġas 0.0047061504
ĠBlack 4.19917
Ġand 2.1454253
ĠSouth 4.777224
ĠAsian 0.11719133
Ġare 1.7437102
Ġtoo 7.5972605
Ġgeneral 3.668357
Ġand 2.2494974
Ġhave 3.7435446
Ġinappropriate 8.027132
Ġboundaries 2.2561307
Ġbecause 4.4528575
Ġof 1.8223364
Ġdivisions 9.718306
Ġwithin 1.8336973
Ġthem 3.7551665
Ġ( 2.5576239
Naz 10.497656
roo 3.094176
, 0.48169473
Ġ1998 3.0140648
). 0.12166068
ĠThe 2.1768417
Ġdata 5.751728
Ġgathered 4.8043294
Ġabout 4.606802
Ġthese 3.1452217
Ġethnic 2.5943909
Ġgroup 3.9097714
ings 0.021398138
Ġis 1.6476781
Ġthen 4.4508777
Ġinterpreted 4.4058075
Ġas 2.1929116
Ġif 2.9552946
Ġthey 0.701546
Ġare 1.0512595
Ġa 2.073986
Ġhom 3.5188472
ogeneous 0.43072423
Ġgroup 0.7996509
Ġwhen 4.1989107
Ġin 0.7652697
Ġfact 0.43515548
Ġthey 1.0509272
Ġare 0.33896786
Ġheter 3.861834
ogeneous 0.019232055
Ġgroups 1.8099197
. 1.2482735
ĠThey 5.2382116
Ġare 0.9002422
Ġheter 3.9123437
ogeneous 0.028521111
Ġbecause 0.42857176
Ġwithin 5.6058683
Ġthe 1.9580969
Ġclassification 7.800244
Ġthere 3.6523085
Ġare 0.38213277
Ġdifferences 2.7079391
Ġof 3.280122
Ġreligion 5.651871
, 0.27510366
Ġclass 4.810156
, 0.5301795
Ġculture 3.4759955
, 0.72430724
Ġgeographical 4.443432
Ġlocation 0.60613567
Ġand 0.8516533
Ġso 2.1025565
Ġon 0.13279396
Ġ( 2.7329438
Naz 2.4554536
roo 0.0014193129
, 0.03787886
Ġ1998 0.038565144
). 0.08191655
ĠAss 8.404366
um 2.0562754
ptions 0.0099500455
Ġand 3.2043922
Ġgeneral 3.9746106
isations 1.159937
Ġabout 1.9022285
Ġthese 2.610799
Ġgroups 0.595211
Ġshould 4.99647
Ġtherefore 2.2457464
Ġnot 1.791842
Ġbe 0.07012583
Ġmade 1.2314379
Ġwithout 2.417772
Ġsome 3.596193
Ġexplanation 4.5682344
Ġas 2.8604705
Ġto 0.29634497
Ġthe 2.2787066
Ġorigin 3.649556
Ġof 0.24916467
Ġthe 0.61656874
Ġdata 4.471339
. 0.68930715
ĠThe 1.933201
Ġlink 8.055787
Ġbetween 0.1531097
Ġethnicity 1.62406
Ġand 0.047733866
Ġmental 0.59932387
Ġillness 0.87956136
Ġis 0.841445
Ġa 3.0190248
Ġhistorical 7.1292095
Ġone 0.46557435
, 1.8182963
Ġnot 3.8794656
Ġa 1.0591207
Ġrecent 3.3874757
Ġphenomenon 3.7077632
, 2.5248244
Ġbecause 3.8391914
Ġthere 2.768097
Ġwas 1.695294
Ġa 1.1732149
Ġstrong 3.5391219
Ġmedical 6.387468
Ġtradition 3.7841349
Ġthat 2.4163432
Ġbelieved 2.3438723
Ġbrains 10.563164
Ġof 3.1082997
Ġblack 3.2946157
Ġpeople 0.65644133
Ġwere 0.561363
Ġinferior 3.6724997
Ġto 0.82099086
Ġbrains 3.9357657
Ġof 0.01775007
Ġwhite 0.15945697
Ġpeople 0.115038075
Ġ( 1.329395
F 3.898717
ernand 5.425505
o 1.4181241
Ġcited 11.484961
Ġin 0.59015787
ĠPilgrim 12.65223
Ġand 3.4120462
ĠRogers 7.6672616
, 0.16893627
Ġ1999 3.0569534
: 4.2029133
65 6.487787
). 0.1484341
ĠThis 2.4589674
Ġmedical 4.9799275
Ġtradition 0.7038209
Ġhas 2.4968314
Ġdeveloped 6.578108
Ġand 2.7070918
Ġnow 5.0264378
Ġincludes 2.89637
Ġa 1.9587145
Ġnumber 2.8279445
Ġof 0.0037031397
Ġother 3.5743883
Ġexplanations 4.1910877
Ġas 2.9839094
Ġto 0.24990502
Ġwhy 0.30570987
Ġethnic 5.1136985
Ġminorities 1.8420441
Ġhave 1.6354934
Ġpoorer 5.0002995
Ġhealth 2.19633
Ġgenerally 7.2216325
Ġand 1.9320601
Ġthese 6.3985295
Ġare 1.6754156
Ġas 5.35989
Ġa 2.6911607
Ġresult 0.35354897
Ġof 0.6255051
Ġgenetics 4.8784533
, 0.7475282
Ġmigration 5.801111
, 0.5832357
Ġmaterial 9.205778
Ġdisadvantage 5.253339
Ġ( 3.4700198
class 8.250391
), 2.0563915
Ġcultural 2.9376261
Ġand 2.601132
Ġracism 10.874531
Ġ( 0.77022547
P 2.4989288
il 0.5023822
grim 0.04907846
Ġand 0.12172316
ĠRogers 0.01939941
, 0.03764928
Ġ1999 0.009103021
). 1.8491584
ĠIn 2.765489
Ġthis 2.535491
Ġessay 5.029242
ĠI 1.7753826
Ġam 2.6648307
Ġgoing 1.0171075
Ġto 0.003597672
Ġdiscuss 2.7668037
Ġa 3.0324621
Ġnumber 1.119809
Ġof 0.0029843457
Ġdifferent 2.317925
Ġapproaches 5.1550636
Ġand 3.538022
Ġexplanations 4.036731
Ġas 3.1201782
Ġto 0.016565915
Ġwhy 0.22751985
Ġethnic 2.2495363
Ġminorities 0.2789504
, 4.798946
Ġespecially 1.86357
ĠAf 0.6575683
ro 0.0011683488
- 3.7616408
Car 0.050585605
ib 0.006679604
bean 0.18636578
's 9.093719
, 0.9924404
Ġare 1.3124224
Ġover 6.4844456
Ġrepresented 3.123407
Ġin 0.20163472
Ġmental 0.9634892
Ġhealth 0.12178859
Ġservices 1.0427113
. 0.9242041
ĠI 2.0251791
Ġwill 0.95299715
Ġalso 1.9777498
Ġexplore 3.275955
Ġthe 0.7589793
Ġrelationship 3.668216
Ġbetween 0.12534298
ĠAsian 7.915421
Ġwomen 3.6630538
Ġand 0.44354543
Ġsom 9.974899
at 0.23707774
ization 0.03286668
. 2.0366077
ĠHarrison 14.065922
Ġet 2.8078012
Ġal 0.024029808
Ġcarried 13.946637
Ġout 0.02117316
Ġa 0.43512574
Ġprospective 6.211058
Ġstudy 0.44029453
Ġof 1.3798046
ĠAf 3.6674562
ro 0.0042804508
- 0.91721994
Car 0.022141498
ib 0.0023998371
bean 0.05786238
Ġmales 4.180519
Ġwho 2.4821482
Ġhad 1.2918212
Ġbeen 1.4420128
Ġreferred 2.765124
Ġto 0.47189552
Ġmental 1.1526031
Ġhealth 0.045730043
Ġservices 0.11772841
Ġin 1.6296477
ĠNottingham 5.6910167
Ġ( 2.9757764
1988 5.6082377
). 1.0714682
ĠThey 1.2550609
Ġused 3.9553123
Ġinterviews 5.0427957
Ġto 0.94928056
Ġtry 5.3452024
Ġand 0.6750675
Ġdetermine 1.6934391
Ġthe 1.0964108
Ġexact 6.0085316
Ġnumber 2.3680341
Ġand 3.9124873
Ġthe 3.337497
Ġreasons 2.0042915
Ġfor 0.43898454
Ġincreased 7.9265304
Ġrates 0.94911826
Ġof 0.05414831
Ġschizophrenia 1.4054815
Ġamong 2.0078557
Ġthis 1.8841288
Ġparticular 4.0474896
Ġgroup 0.42895237
Ġ( 1.9071801
H 0.3115388
arrison 0.029949985
Ġet 0.14306787
Ġal 0.011373545
, 0.5088251
Ġ1988 1.4154596
). 0.24598867
ĠThey 2.3035524
Ġfound 0.7629607
Ġthat 0.2623343
Ġschizophrenia 5.0434895
Ġrates 2.5510695
Ġwere 1.1144094
Ġaround 5.4290805
Ġ13 4.211652
% 0.8043227
Ġhigher 1.3923324
Ġthan 3.4428594
Ġthe 1.0981567
Ġrest 4.3000164
Ġof 0.010429361
Ġthe 0.059866596
Ġpopulation 0.6677991
Ġof 4.9630437
ĠNottingham 2.0519836
, 1.6881515
Ġespecially 4.9030066
Ġamongst 1.8928338
Ġsecond 9.703134
Ġgeneration 0.46904188
ĠBritish 4.6583815
Ġborn 3.1946633
Ġ( 4.8082743
H 1.4440902
arrison 0.025121616
Ġet 0.120583735
Ġal 0.022227911
, 0.10094942
Ġ1988 0.03648194
). 0.7033136
ĠThe 1.8927711
Ġpsychological 7.723089
Ġliterature 4.4386353
Ġoffers 6.255529
Ġtwo 4.7527657
Ġexplanations 2.489962
Ġas 1.8039113
Ġto 0.0075094425
Ġwhy 0.049460676
ĠAf 2.3146515
ro 0.002033526
- 0.304237
Car 0.0069761886
ib 0.0027848694
bean 0.07360358
Ġmen 1.6537551
Ġare 0.80121166
Ġover 1.5364513
Ġrepresented 0.3467125
Ġwith 6.573044
Ġschizophrenia 1.7729338
Ġand 3.850067
ĠAsians 12.624085
Ġare 1.3842626
Ġunder 1.2529005
Ġrepresented 0.66257566
. 0.9714754
ĠThe 0.8365296
Ġfirst 0.101177186
Ġexplanation 1.1297759
Ġlooks 7.32141
Ġat 0.14485662
Ġcultural 4.7124863
Ġdifference 3.6868339
Ġand 1.1277608
Ġexplains 4.6434555
Ġthe 2.0423129
Ġunder 4.530889
Ġrepresentation 0.45042935
Ġof 0.5060609
ĠAsians 1.9922199
Ġbecause 3.657971
Ġof 1.0399908
Ġlow 5.8721204
Ġlevels 1.6512891
Ġof 0.007583612
Ġdistress 11.945181
Ġ( 3.4417796
P 3.2300422
il 0.56314534
grim 0.03336838
Ġand 0.14566225
ĠRogers 0.018366572
, 0.027625928
Ġ1999 0.016927943
). 0.7594576
ĠLow 6.430791
Ġlevels 0.13783982
Ġof 0.0029825517
Ġdistress 0.11164034
Ġare 1.8751954
Ġa 1.8672882
Ġresult 3.09917
Ġof 0.010202018
Ġfatal 12.347099
istic 2.3289406
Ġattitudes 2.219441
Ġand 1.5565168
Ġpsychological 6.2044206
Ġrobust 11.9187355
ness 0.19438581
Ġwhich 2.6291497
Ġare 1.3253897
Ġrelated 5.5837345
Ġto 0.047253907
Ġculture 5.8690147
. 1.650452
ĠAlso 5.0547714
, 0.31471607
Ġin 3.7558653
ĠAsian 6.0818605
Ġculture 1.9685054
Ġthere 2.0004575
Ġis 0.35461476
Ġoften 4.0016785
Ġa 0.7560948
Ġstigma 5.2829256
Ġattached 1.4352278
Ġto 0.03926237
Ġmental 0.9663298
Ġhealth 1.4396229
Ġservices 1.6433692
Ġso 4.8867006
Ġthey 3.2831018
Ġare 0.7492617
Ġaccessed 8.507518
Ġless 3.3697765
Ġby 2.4504535
Ġthem 6.6537123
Ġ( 1.9679368
P 0.69743663
il 0.043272194
grim 0.005435949
Ġand 0.0271911
ĠRogers 0.0037677553
, 0.011051
Ġ1999 0.006202385
). 0.13106285
ĠThe 1.2609943
Ġsecond 0.18172735
Ġpsychological 7.8844256
Ġexplanation 0.08542017
Ġis 1.0327028
Ġvulnerability 12.462183
Ġwhich 4.60382
Ġis 1.1211025
Ġbrought 7.2029214
Ġon 2.8090355
Ġby 0.1880164
Ġan 4.115634
Ġadverse 4.5951576
Ġenvironment 2.297982
, 2.2958689
Ġsocial 4.8387413
Ġdeprivation 4.0941553
, 0.9243325
Ġunf 9.862854
avour 0.21342884
able 0.012738403
Ġconditions 4.196311
, 1.9590077
Ġfinancial 5.3111396
Ġdifficulties 2.2726002
Ġand 0.7460831
Ġdiscrimination 4.6296887
Ġ( 0.9306127
P 0.53839827
il 0.017414555
grim 0.0007242328
Ġand 0.01414677
ĠRogers 0.0045335717
, 0.014367331
Ġ1999 0.0054720878
). 0.044283744
ĠEthnic 5.754104
Ġminorities 0.4904722
Ġfeature 9.905004
Ġheavily 3.0985773
Ġin 0.21051729
Ġlow 6.001972
Ġsocio 1.7677602
Ġeconomic 2.2029426
Ġgroups 3.095286
Ġand 1.6913849
Ġare 2.0332694
Ġoften 2.3857713
Ġfrom 6.2145357
Ġlower 2.639962
Ġclasses 3.9444842
Ġwhich 3.6258664
Ġcan 3.172568
Ġcause 3.2501307
Ġsome 5.357361
Ġof 2.1360214
Ġthe 0.405299
Ġfactors 3.6515415
Ġabove 3.2553084
Ġ( 3.141676
Ann 6.3190155
and 0.00326429
ale 0.00014146294
, 0.07460388
Ġ2000 0.055188175
). 0.14762795
ĠThe 1.9403678
ĠBlack 6.6419253
ĠReport 10.593398
Ġcame 7.7694626
Ġto 1.8503836
Ġthe 0.5945823
Ġconclusion 0.61361486
Ġthat 0.038228508
Ġmaterial 11.969798
Ġfactors 4.94421
Ġwere 2.0804605
Ġmostly 5.895207
Ġto 1.2910612
Ġblame 0.023077525
Ġfor 0.5033705
Ġthe 0.6818717
Ġclass 10.141014
Ġinequalities 3.9673924
Ġin 1.0853689
Ġhealth 3.9886959
Ġand 1.910664
, 5.828671
Ġgiven 5.2247458
Ġthe 0.45993882
Ġdata 6.1319804
Ġthat 3.445408
Ġsuggests 4.955112
Ġethnic 5.561782
Ġminorities 0.35957155
Ġwere 4.2472215
Ġmore 2.4424028
Ġlikely 0.40107867
Ġto 0.053196
Ġbe 0.88031536
Ġin 2.5657845
Ġa 4.0242214
Ġlower 1.3787848
Ġclass 3.153267
, 1.3012768
Ġthis 1.615519
Ġsuggests 3.655467
Ġthat 0.44871706
Ġit 3.2523437
Ġis 0.63566387
Ġrelevant 8.513302
Ġto 0.51148045
Ġethnic 8.008465
Ġinequalities 6.5555396
Ġin 0.97155404
Ġhealth 1.4272952
Ġ( 1.2330414
Naz 7.623558
roo 0.0016025159
, 0.021014886
Ġ1998 0.03763183
). 0.100638114
ĠAf 4.678169
ro 0.002331248
- 0.26158994
Car 0.014346169
ib 0.0023265867
bean 0.014131719
's 1.688905
Ġare 0.9259225
Ġthe 3.295499
Ġethnic 5.1267195
Ġgroup 0.49077564
Ġwhich 2.524597
Ġare 1.7843062
Ġmost 1.5841929
Ġlikely 0.81591266
Ġto 0.013911996
Ġhave 1.7630274
Ġcontact 7.2688417
Ġwith 0.03263375
Ġmental 1.8833429
Ġhealth 0.01592673
Ġservices 0.20849337
Ġthrough 5.878486
Ġthe 1.6643885
Ġpolice 4.7338715
, 1.4140687
Ġcourts 3.8567514
Ġand 0.68959236
Ġprison 4.176552
Ġ( 1.5563642
Ann 1.7834586
and 0.0027102164
ale 0.00019714465
, 0.017398544
Ġ2000 0.03358243
). 0.15508793
ĠThe 1.8716824
Ġmajority 3.6669288
Ġof 0.036778223
Ġmental 4.1202064
Ġhealth 0.09058937
Ġpatients 4.0994005
Ġenter 7.5070286
Ġthe 1.5060382
Ġsystem 2.4619126
Ġvoluntarily 6.1211076
, 1.6209744
Ġin 3.9796672
Ġthe 2.4484897
Ġ1980 7.4192595
's 0.8005107
Ġapproximately 6.442015
Ġa 4.458955
Ġ5 8.098919
Ġth 8.669011
Ġof 0.5926209
ĠAf 2.0074942
ro 0.0017375689
- 0.28982115
Car 0.011268834
ib 0.003190978
bean 0.015574311
's 0.831001
Ġwere 1.4006563
Ġdetained 4.8534503
Ġinvoluntary 10.966654
Ġwhich 5.5572276
Ġmakes 4.5281553
Ġup 2.4855025
Ġ8 5.5444837
% 1.2918489
Ġof 0.0666133
Ġall 1.2279574
Ġinvoluntary 3.598746
Ġadmissions 1.6213273
Ġ( 0.87680715
P 2.5188441
il 0.22054806
grim 0.0016976246
Ġand 0.04091461
ĠRogers 0.007600186
, 0.016838713
Ġ1999 0.0127647845
). 0.073675886
ĠSome 4.851938
Ġresearch 4.3355465
Ġinto 4.6696014
Ġsection 10.555047
Ġ136 6.698299
Ġof 0.8945109
Ġthe 0.04599394
ĠMental 0.2507586
ĠHealth 0.060907315
ĠAct 0.037181918
, 3.220328
Ġwhich 1.1833774
Ġallows 1.9556398
Ġthe 1.8150586
Ġdetention 2.049137
Ġof 0.0696157
Ġa 3.3105216
Ġperson 0.51961
Ġfor 1.7215495
Ġup 1.5630897
Ġto 0.0051917667
Ġ72 4.7901554
Ġhours 0.07806102
Ġin 3.0467315
Ġa 1.8295218
Ġplace 5.609372
Ġof 0.60744095
Ġsafety 3.0367582
, 0.8280961
Ġhas 1.0571061
Ġshown 1.5606874
Ġthat 0.25925735
ĠAf 2.7205603
ro 0.0011069442
- 0.04545954
Car 0.0062943324
ib 0.0033433507
bean 0.017877007
Ġmen 2.2254167
Ġare 0.7730732
Ġtwo 5.823247
Ġand 1.9304994
Ġa 0.10911765
Ġhalf 0.025576398
Ġtimes 0.024966627
Ġas 2.843887
Ġlikely 0.0058439164
Ġto 0.20853199
Ġbe 0.19324711
Ġdetained 0.2874538
Ġthan 1.4990406
Ġwhite 3.1980124
Ġmen 0.2669153
Ġand 3.0649266
Ġthen 7.3696065
Ġmore 5.2682557
Ġlikely 2.2988834
Ġto 0.12717757
Ġbe 0.22014308
Ġput 5.645101
Ġin 0.41443494
Ġa 1.6120632
Ġpsychiatric 2.0721104
Ġhospital 1.2009233
Ġ( 0.6460494
P 1.094766
il 0.05165795
grim 0.0005874705
Ġand 0.023162374
ĠRogers 0.005461781
, 0.040209778
Ġ1999 0.032767143
). 0.056419834
ĠThe 1.6084727
Ġreason 2.9985979
Ġthey 5.419699
Ġare 0.1791903
Ġmost 7.3706045
Ġlikely 0.06371486
Ġto 0.026167814
Ġcome 6.247731
Ġinto 1.4166095
Ġcontact 1.391934
Ġwith 0.0124577265
Ġthe 0.9572591
Ġmental 2.7277937
Ġhealth 0.0083673
Ġsystem 0.69878995
Ġthrough 4.1560445
Ġthe 0.16209112
Ġcriminal 4.6822815
Ġjustice 0.06924699
Ġsystem 0.06571289
Ġis 0.22950706
Ġbecause 0.50066346
Ġthey 1.198802
Ġare 0.46278086
Ġmore 1.8476359
Ġlikely 0.08336892
Ġto 0.032166954
Ġbe 0.5733985
Ġstopped 6.592119
Ġon 3.5278442
Ġthe 0.28371924
Ġstreets 2.2496264
Ġand 1.4260576
Ġtheir 4.1329064
Ġbehaviour 2.038388
Ġis 0.86286604
Ġoften 2.6379836
Ġinterpreted 3.8371327
Ġby 2.5327735
Ġother 3.4637413
Ġethnic 6.162375
Ġgroups 0.60480434
Ġas 0.72044885
Ġinsane 9.164572
Ġor 2.1708298
Ġdangerous 2.240614
Ġ( 0.7746706
Ann 1.8609443
and 0.0032367238
ale 0.0002038222
, 0.011137913
Ġ2000 0.021355573
). 0.04015046
ĠThe 1.5408754
Ġpolice 3.4980578
Ġact 5.6609178
Ġas 1.8468637
Ġa 0.81671304
Ġ' 5.7930245
con 7.325346
vey 3.4729288
or 0.23807141
Ġbelt 0.1317774
Ġfor 4.0152235
Ġcommunity 5.9840927
Ġprejudice 8.489597
' 0.84394336
Ġ( 1.0763379
P 1.2507839
il 0.057006624
grim 0.00025467362
Ġand 0.022592604
ĠRogers 0.007172898
, 0.011450836
Ġ1999 0.013579515
: 2.7774034
Ġ70 6.478582
) 1.1848289
Ġand 0.8497175
Ġthis 2.3987906
Ġis 1.3132483
Ġknown 6.4994383
Ġas 0.5057774
Ġtransmitted 13.699716
Ġprejudice 3.475666
, 2.7005851
Ġthey 7.2051477
Ġcreate 5.8832917
Ġsuspicion 8.777763
Ġin 2.8252926
Ġthe 0.67249745
Ġpublic 3.801101
Ġwhich 2.992477
Ġin 3.8760242
Ġturn 0.046322145
Ġmeans 6.234993
Ġthe 3.0298502
Ġpublic 1.7129852
Ġare 2.679825
Ġmore 0.8990858
Ġlikely 0.11053093
Ġto 0.008710801
Ġreport 3.102543
Ġ' 6.599017
mad 5.7365727
' 1.278574
Ġbehaviour 1.7588422
Ġin 3.1570642
ĠAf 3.057629
ro 0.0008060728
- 0.07520183
Car 0.007102843
ib 0.0017861723
bean 0.01329401
's 0.56275296
. 1.2929975
ĠBlack 6.8066087
Ġdefendants 9.4588995
Ġare 1.1789175
Ġclass 8.664805
ed 0.014194834
Ġas 0.16111997
Ġmentally 1.7124124
Ġvulnerable 6.3510623
, 2.3036597
Ġare 6.333633
Ġless 3.1077588
Ġlikely 0.08303318
Ġthan 4.2545905
Ġwhite 0.9725211
Ġpeople 3.0389256
Ġto 0.073057115
Ġbe 0.962645
Ġgiven 2.839347
Ġbail 3.1438286
Ġby 5.163766
Ġthe 0.37377554
Ġcriminal 6.3233094
Ġjustice 0.806047
Ġsystem 0.038592648
Ġand 0.68912756
Ġare 0.78534585
Ġmore 0.8385998
Ġlikely 0.02427766
Ġto 0.029199209
Ġreceive 3.4960642
Ġcompulsory 6.951078
Ġpsychiatric 1.8844004
Ġtreatment 0.24303077
Ġ( 0.5437012
Brown 6.34504
Ġcited 5.165909
Ġin 0.013084135
ĠPilgrim 1.283098
Ġand 0.014715318
ĠRogers 0.0047795735
, 0.010293311
Ġ1999 0.012812779
: 0.5063882
69 3.5031478
). 0.16996467
ĠFive 9.137488
Ġmain 5.3838525
Ġreasons 1.6607889
Ġfor 1.043469
Ġthis 1.3155377
Ġhave 2.6900601
Ġbeen 0.031433295
Ġidentified 1.6604122
. 2.34402
ĠThe 1.8007113
Ġfirst 0.34309697
Ġis 0.8609619
Ġdue 4.5955806
Ġto 0.0072872103
Ġthe 0.81157124
Ġculture 5.007789
Ġof 0.56825674
Ġblack 3.467561
Ġpeople 1.0704817
, 1.6583774
Ġespecially 3.8847713
Ġmen 4.1886406
. 1.8242545
ĠThey 2.1917813
Ġtend 3.6105082
Ġto 0.038233772
Ġexpress 6.8526697
Ġdistress 6.561356
Ġin 2.2659123
Ġa 1.3641232
Ġculturally 5.4136643
Ġdistinctive 7.6414833
Ġway 0.36128122
Ġwhich 1.9200296
Ġmakes 2.4606874
Ġthem 0.67606527
Ġmore 1.1740483
Ġnoticeable 6.900209
Ġto 1.7073807
Ġthe 0.6100246
Ġpublic 1.6755688
Ġand 1.6499655
Ġpolice 6.331125
. 0.82856417
ĠThis 2.2873588
Ġin 4.2010546
Ġturn 0.032400202
Ġmeans 2.2442331
Ġthat 0.8486749
Ġhigher 8.619642
Ġlevels 2.0161483
Ġof 0.0064625335
Ġsupposed 13.286137
Ġmental 1.3647243
Ġillness 0.5894843
Ġcome 5.546728
Ġto 1.0236307
Ġlight 0.6674571
Ġdue 5.060008
Ġto 0.005457405
Ġthe 1.2932106
Ġcriminal 7.95134
Ġjustice 0.42905286
Ġsystem 0.03302111
Ġ( 1.8792938
G 6.543761
idd 4.0918264
ens 0.3042281
, 0.5767723
Ġ1993 3.0547063
). 0.42868972
ĠThe 0.7105005
Ġsecond 0.10092199
Ġreason 0.7727082
Ġmay 5.933686
Ġbe 0.21136256
Ġbecause 2.4078012
Ġof 1.0070488
Ġtheir 3.3519804
Ġlow 3.8388188
Ġlevel 1.7367212
Ġof 0.015148806
Ġregistration 9.786373
Ġwith 2.125295
Ġprimary 9.501297
Ġcare 0.68870425
. 2.1767304
ĠK 10.514979
off 6.067476
man 2.8400095
Ġet 1.3049511
Ġal 0.0074806763
Ġcarried 5.2236605
Ġout 0.0027771583
Ġa 0.25601548
Ġone 7.467673
Ġday 5.188883
Ġsurvey 1.7333138
Ġin 1.8179617
Ġthe 2.489337
ĠNorth 3.9448895
Ġand 5.1353436
ĠSouth 1.7530125
ĠThames 7.771397
Ġregion 2.574961
Ġto 3.708493
Ġanalyse 5.5423174
Ġthe 0.5175082
Ġclinical 6.8399773
Ġand 2.8554683
Ġdemographic 3.1518607
Ġdata 2.8742414
Ġabout 3.7466276
Ġpsychiatric 4.537415
