The 2.5806708
Ġtens 11.674476
ile 3.9061558
Ġtest 6.763134
Ġconsists 4.9830985
Ġof 0.056303747
Ġsteadily 11.360605
Ġpulling 3.8858116
Ġa 0.9776155
Ġmaterial 4.9113903
Ġsample 6.688668
Ġwith 2.9241972
Ġa 0.706889
Ġtens 4.066341
ile 0.0163788
Ġload 2.5422468
, 2.7797081
Ġwhich 3.0364034
Ġincreases 5.782136
Ġat 4.4317374
Ġa 0.6783481
Ġconstant 1.2112042
Ġrate 0.07793582
, 2.0227678
Ġuntil 1.6237901
Ġthe 0.58684945
Ġsample 2.6522853
Ġbrakes 10.441107
. 0.9556808
ĠTens 5.5120254
ile 0.0105233835
Ġtests 1.4217318
Ġare 0.7294476
Ġused 1.6407827
Ġto 0.56971794
Ġobtain 6.285378
ĠStress 11.714811
- 1.9293082
St 2.4891865
rain 1.8018525
Ġcor 10.683122
ves 9.272759
Ġand 2.0763078
Ġthen 8.769442
Ġobtain 7.3545017
Ġvalues 5.649212
Ġsuch 5.4025908
Ġas 0.048496295
Ġyield 5.296381
Ġstress 1.4837847
, 0.9286952
Ġultimate 4.8661685
Ġtens 1.7383473
ile 0.002358134
Ġstrength 0.09933371
Ġand 1.6079549
ĠYoung 6.6822505
's 0.41088784
Ġmod 0.056998856
ulus 0.025403485
Ġfor 2.7868817
Ġa 1.9824339
Ġgiven 1.4192071
Ġmaterial 0.7876211
. 0.39634097
ĠThe 1.8292404
Ġstress 2.5228891
- 0.44659603
str 0.99535
ain 0.0026145945
Ġcurve 2.4941483
Ġalso 4.924504
Ġshows 2.074675
Ġthe 0.5906196
Ġelastic 4.279044
Ġand 3.8520734
Ġplastic 2.6928315
Ġbehaviour 5.222249
Ġof 0.21576099
Ġthe 0.29975164
Ġmaterial 0.4239307
. 0.86901766
ĠThe 1.707109
Ġtest 3.3142495
Ġgives 6.3444
Ġa 1.1637102
Ġcurve 6.044467
Ġof 1.7676286
Ġload 5.5986037
Ġagainst 5.3298674
Ġextension 9.229328
, 1.3993797
Ġwhich 1.3600951
Ġcan 2.124789
Ġthen 2.7115233
Ġbe 0.026672041
Ġconverted 3.6000211
Ġinto 0.84863067
Ġa 1.1488671
Ġstress 1.834327
Ġvs 5.4948826
Ġstrain 4.140915
Ġcurve 0.21824105
. 0.692749
ĠThe 1.4717494
Ġcurves 6.500111
Ġwill 4.4397106
Ġhowever 7.911386
Ġbe 1.5805631
Ġexactly 8.022701
Ġthe 0.32836998
Ġsame 0.022172026
, 2.4252722
Ġonly 3.9617832
Ġthe 0.67972535
Ġvalues 4.5098867
Ġof 1.3086267
Ġthe 1.1058322
Ġproperties 6.5416074
Ġwill 1.3026265
Ġdiffer 2.5894096
. 0.35151765
ĠThe 1.9279541
Ġtens 2.7512863
ile 0.0027206768
Ġtest 0.95366526
Ġmachine 8.737608
Ġto 8.039583
Ġbe 1.7662112
Ġused 0.2062834
Ġis 1.7345476
Ġthe 2.108344
ĠT 3.2276094
ets 6.852249
ometric 13.165465
. 3.3856242
ĠTwo 7.0281796
Ġmain 4.634458
Ġregions 9.023517
Ġof 0.96623373
Ġbehaviour 8.447031
Ġcan 2.1979
Ġoccur 6.348683
Ġwhen 2.6053464
Ġa 2.195664
Ġmaterial 0.8294211
Ġis 0.34053516
Ġunder 3.4725995
Ġtens 2.6453817
ile 0.0033690059
Ġloading 2.8394754
: 0.95594263
ĠElastic 6.3960214
Ġde 3.5456598
formation 0.010955725
Ġis 3.4403577
Ġshown 4.9625278
Ġas 2.7737327
Ġthe 1.5166893
Ġlinear 5.940003
Ġregion 4.1985326
Ġof 2.0439656
Ġa 3.2557693
Ġstress 0.92490846
- 0.24509104
str 0.09731808
ain 0.001318025
Ġcurve 0.10493
. 1.3197021
ĠThis 2.0243652
Ġis 1.0755358
Ġwhen 4.35979
Ġchemical 10.851705
Ġbonds 2.0865448
Ġin 2.95061
Ġa 2.4742517
Ġmaterials 5.271969
Ġmicro 7.7375083
st 0.050817993
ructure 0.0003116732
Ġare 1.12109
Ġstretched 3.4834888
, 2.185855
Ġand 1.5693729
Ġnot 6.0331793
Ġbroken 2.8367343
. 0.46292892
ĠIf 4.408464
Ġa 2.2146728
Ġload 4.9559627
Ġis 0.18221457
Ġremoved 5.4891825
Ġthe 2.4876494
Ġmaterial 3.4117246
Ġwill 1.1020718
Ġregain 4.903681
Ġ100 9.760675
% 0.091259904
Ġof 0.60310906
Ġit 3.7260056
's 0.15598652
Ġoriginal 0.6878317
Ġcharacteristics 6.4042397
Ġi 8.662706
. 0.0056234887
e 0.005722936
. 0.074811205
Ġlength 5.4836116
. 2.445885
ĠPlastic 2.355646
Ġde 0.20729959
formation 0.0019715312
Ġoccurs 1.1679109
Ġafter 5.3743744
Ġthe 1.2964872
Ġyield 7.399858
Ġpoint 5.072265
Ġon 5.1526775
Ġa 1.2323453
Ġstress 2.2872076
- 0.050893694
str 0.04404041
ain 0.001129683
Ġcurve 0.036117207
. 1.0849732
ĠThis 1.1437175
Ġoccurs 1.9970787
Ġwhen 0.40207165
Ġchemical 3.9433656
Ġbonds 0.10644035
Ġare 1.6380298
Ġbroken 1.4571215
Ġand 1.528464
Ġatoms 8.162206
Ġliterally 9.582886
Ġmove 2.9207203
Ġalong 3.7752287
Ġone 6.553199
Ġspace 6.1891794
Ġthen 7.8103867
Ġreturn 4.211183
Ġto 0.14237319
Ġstable 9.80258
Ġconfiguration 5.524298
Ġwith 4.60749
Ġthe 1.2132533
Ġnew 3.5118139
Ġneighbour 9.689547
. 0.83145225
ĠThis 1.7791339
Ġoccurs 3.104523
Ġas 3.8243349
Ġa 0.8451391
Ġdisl 10.23815
ocation 0.0111526195
Ġmoves 3.8274596
Ġalong 2.1295207
Ġa 0.9782556
Ġslip 9.049557
Ġplane 1.194717
. 0.96288615
ĠOnce 5.346253
Ġplastic 6.1247597
Ġde 0.112677075
formation 0.0049669887
Ġhas 1.165542
Ġoccurred 0.31436077
Ġthe 1.3259803
Ġmaterial 0.6544434
Ġcannot 4.529953
Ġregain 4.4470673
Ġ100 5.3430767
% 0.044379383
Ġof 0.24191347
Ġits 0.723416
Ġoriginal 0.20359136
Ġcharacteristics 1.7123162
, 1.938058
Ġalthough 4.9707847
Ġit 0.8383241
Ġwill 1.64267
Ġtry 7.041872
. 1.9715861
ĠPlastic 4.515363
Ġde 0.22239442
formation 0.007964261
Ġis 1.148666
Ġsometimes 5.159708
Ġvery 3.9893315
Ġvisible 4.112502
Ġduring 4.815033
Ġtens 2.5099926
ile 0.0056654476
Ġtesting 0.7830317
Ġas 2.935837
Ġa 2.0037308
Ġphenomenon 6.291826
Ġcalled 1.8980697
Ġ' 2.7012317
neck 8.355115
ing 1.6449939
' 1.7094344
Ġoccurs 1.6222408
. 0.6903815
ĠThis 1.2816292
Ġis 0.8307766
Ġwhen 1.1753838
Ġthe 0.87618333
Ġcross 6.5885215
- 0.5502201
sectional 0.25860104
Ġarea 0.66305864
Ġof 0.20150872
Ġthe 0.8259595
Ġsample 3.056343
Ġbegins 6.4496045
Ġto 0.013471066
Ġdecrease 1.9152772
, 1.7598467
Ġnormally 7.045925
Ġtowards 4.9894333
Ġthe 0.09176146
Ġmiddle 3.8115387
Ġof 0.48024905
Ġthe 0.067292176
Ġsample 1.411793
. 0.6976562
ĠThis 1.8903644
Ġis 1.1556729
Ġwhere 4.3617997
Ġthe 0.50927305
Ġdis 8.269981
loc 0.036832023
ations 0.040596183
Ġare 2.3617198
Ġconcentrated 5.189121
, 1.4820217
Ġfracture 11.635531
Ġwill 4.0936766
Ġoccur 1.0749246
Ġin 3.199962
Ġthis 1.6107703
Ġregion 1.0705334
Ġperpendicular 10.553454
Ġto 0.013844427
Ġthe 0.050521653
Ġapplied 7.033909
Ġload 0.651748
. 0.63307595
ĠThree 8.935595
Ġproperties 5.442407
Ġthat 2.8338041
Ġcan 1.295019
Ġbe 0.22674991
Ġshown 6.0184407
Ġusing 3.6801
Ġstress 3.5050275
- 0.12238344
str 0.07060916
ain 0.0016152328
Ġcurves 0.945939
Ġare 0.39655444
Ġduct 7.309182
ility 0.049229663
, 0.11535322
Ġstrength 2.6710007
Ġand 0.26109192
Ġstiffness 2.9057658
. 0.15297668
ĠD 1.8006245
uct 0.003221176
ility 0.010198587
Ġis 0.7634144
Ġthe 0.70005536
Ġability 1.0857852
Ġof 0.33361477
Ġa 0.7123702
Ġmaterial 0.14596602
Ġto 0.03185857
Ġsustain 5.734923
Ġlarge 5.7688313
Ġamounts 3.4445689
Ġof 0.0055616912
Ġplastic 7.4707255
Ġde 0.2617539
formation 0.0021254502
. 0.8293034
ĠA 2.9159763
Ġbrittle 5.802245
Ġmaterial 0.16904552
Ġis 2.0258703
Ġone 1.1139085
Ġwith 2.8064306
Ġvery 2.1721702
Ġlow 1.4747703
Ġduct 0.30498612
ility 0.025168924
. 0.97364026
ĠStrength 4.766159
Ġis 0.4011877
Ġshown 5.838216
Ġas 0.60936505
Ġthe 0.36481085
Ġheight 7.7413964
Ġof 0.27335313
Ġthe 0.8861167
Ġcurve 3.753003
Ġon 4.2502513
Ġthe 0.830747
Ġgraph 4.989267
, 1.6206765
Ġhigher 7.290372
Ġis 2.0227134
Ġstronger 1.2068462
. 0.26126868
ĠSt 4.410238
iff 0.004940694
ness 0.020431977
Ġcan 4.418671
Ġbe 0.17123331
Ġshown 1.0708345
Ġas 0.41204217
Ġthe 0.17191112
Ġsteep 7.9181
ness 0.0498466
Ġof 0.23862506
Ġthe 0.07706554
Ġelastic 5.72157
Ġline 4.6924677
Ġon 1.563822
Ġthe 0.09279838
Ġgraph 0.44328368
, 1.513906
Ġst 6.5544786
eeper 0.008042666
Ġis 0.2066045
Ġstiff 0.4209778
er 0.004783407
. 0.12269801
ĠThe 1.8324419
Ġcalculations 8.615378
Ġthat 3.0671499
Ġwill 3.1811602
Ġneed 4.3983774
Ġto 0.008285621
Ġbe 0.02594959
Ġused 4.1854696
Ġare 1.4965867
: 2.3944643
ĠStress 3.2563143
Ġ= 3.1222022
Ġload 5.7363486
/ 3.7003388
area 5.2963886
Ġ= 2.2736855
Ġl 6.037425
/ 2.0150867
A 2.0312238
ĠSt 5.422721
rain 0.25487173
Ġ= 0.29336217
Ġchange 7.079135
Ġin 0.15686734
Ġlength 1.7444863
/ 0.4700736
original 8.353977
Ġlength 0.24588826
Ġ= 1.2758307
ĠL 3.1521027
/ 0.4246677
L 4.156267
ĠOb 9.047769
tain 1.7290788
Ġa 1.2439421
Ġmean 7.1386538
Ġdiameter 6.0688977
Ġfor 2.0516632
Ġthe 0.51640475
Ġspecimen 3.0962532
Ġby 3.976564
Ġmeasuring 3.226405
Ġthe 0.34346926
Ġdiameter 2.8131907
Ġat 2.339158
Ġthree 5.190962
Ġdifferent 2.0370157
Ġpoints 0.41595286
Ġalong 2.1959376
Ġthe 0.12957765
Ġspecimen 3.1154125
Ġand 3.1240966
Ġtaking 3.634242
Ġthe 0.19853309
Ġaverage 1.7289947
ĠOb 14.046945
tain 0.0025887198
Ġa 0.439927
Ġgauge 8.143491
Ġlength 1.2093772
Ġby 2.7222867
Ġmeasuring 0.75386274
Ġthe 0.14442894
Ġthinner 12.151773
Ġpart 2.2849026
Ġof 0.14943698
Ġthe 0.040532555
Ġspecimen 0.73278403
ĠWhen 8.31669
Ġprogram 12.514392
Ġreturns 7.8965607
Ġto 0.8081849
Ġstart 4.060249
Ġunlock 14.529723
Ġthe 1.0503356
Ġbottom 8.073802
Ġgrips 11.947798
ĠThe 5.0184436
Ġmaterial 5.127863
Ġgraphs 10.936938
Ġhave 4.1341
Ġbeen 0.8523206
Ġlabelled 6.600837
Ġ1 6.2247477
, 1.2033688
Ġ2 0.30879998
Ġand 0.87175953
Ġ3 0.09242167
. 1.3308129
ĠFor 4.2247243
Ġeach 2.532526
Ġmaterial 3.6876578
Ġyield 8.906767
Ġstress 0.39453962
Ġand 1.7338433
ĠUltimate 9.493876
ĠTens 1.1588039
ile 0.006136834
ĠStrength 0.50672644
Ġ( 3.059185
UT 0.64540184
S 0.04713225
) 0.08736147
Ġwill 2.8174999
Ġbe 0.16430347
Ġcalculated 3.0055873
. 0.81231904
ĠYoung 8.675104
's 0.049685407
Ġmod 0.8558522
ulus 0.008708998
Ġwould 6.8330903
Ġalso 2.7867951
Ġnormally 6.132211
Ġbe 0.12654589
Ġcalculated 0.5647823
, 1.8770149
Ġbut 1.0115696
Ġthere 3.9793687
Ġis 0.49447373
Ġno 0.95287573
Ġgauge 7.3308167
Ġlength 0.69891095
Ġto 2.0304084
Ġcalculate 2.3540409
Ġthe 2.8702636
Ġstrain 5.965913
Ġso 4.614106
ĠYoung 4.0843716
's 0.06367656
Ġmod 0.17589904
ulus 0.010468631
Ġcannot 3.794773
Ġbe 0.04397825
Ġcalculated 0.85132724
. 0.3421163
ĠThe 1.7147003
Ġthree 5.8345885
Ġstress 3.9650311
Ġ- 6.151795
Ġstrain 0.59223956
Ġcurves 0.14435229
Ġshow 4.45653
Ġsimilar 6.425203
Ġelastic 6.6928053
Ġbehaviour 1.5781872
, 1.1544975
Ġthe 3.6213994
Ġlinear 5.557093
Ġpart 3.565183
Ġat 5.099154
Ġthe 0.84989375
Ġbeginning 4.4323125
Ġof 0.6275668
Ġthe 0.16264346
Ġcurve 0.50924915
Ġwhere 5.5246572
Ġthe 0.7762695
Ġextension 7.813703
Ġis 0.8322786
Ġproportional 6.184443
Ġto 0.054771923
Ġthe 0.20178406
Ġload 1.0684247
Ġbeing 4.003878
Ġapplied 0.19654866
. 1.1664782
ĠMaterial 8.395565
Ġ3 5.9404035
Ġonly 7.6624837
Ġshows 1.8761989
Ġthis 5.4524474
Ġbehaviour 2.658406
Ġand 3.2581384
Ġfractures 11.066613
Ġbefore 6.6340113
Ġany 4.510171
Ġyielding 9.364775
Ġor 3.4147446
Ġplastic 1.1977534
Ġde 0.30053324
formation 0.009203473
Ġcan 3.6821265
Ġoccur 0.23454304
. 0.22218427
ĠMaterials 5.231777
Ġ1 1.7254245
Ġand 0.30191687
Ġ2 0.5185163
Ġshow 1.2214493
Ġyielding 7.3464527
Ġwhere 6.1397524
Ġthe 0.71031016
Ġcurve 4.9530015
Ġtakes 5.2473555
Ġon 2.099039
Ġan 2.7749672
Ġerratic 5.9502745
Ġshape 1.16467
Ġand 2.248998
Ġthen 2.4224346
Ġcontinues 5.7956767
Ġto 0.50382805
Ġelong 3.559229
ate 0.0034793543
. 1.2961997
ĠThe 1.7300332
Ġmaterial 2.0451074
Ġis 2.372391
Ġnow 3.4873126
Ġin 2.5077815
Ġplastic 3.4460423
Ġde 0.45025033
formation 0.013311226
. 0.98535895
ĠThe 1.6750995
Ġcurve 3.921299
Ġfor 3.9827416
Ġmaterials 2.5938523
Ġ1 0.6222268
Ġand 0.06859896
Ġ2 0.13788497
Ġthen 4.255198
Ġshows 2.6559782
Ġa 1.6654567
Ġpoint 6.416491
Ġwhere 0.9751641
Ġthe 0.7569667
Ġextension 2.4751456
Ġincreases 3.4508672
Ġbut 3.3706112
Ġthe 1.1305964
Ġload 4.338907
Ġremains 2.0346267
Ġthe 2.392164
Ġsame 0.003556456
. 0.3288736
ĠThis 2.1518714
Ġis 0.6287459
Ġthe 1.6268772
Ġultimate 6.3941236
Ġtens 1.0898758
ile 0.00063965475
Ġstrength 0.119361654
Ġof 2.4405446
Ġthe 0.10248942
Ġmaterial 0.19210963
. 0.30847725
ĠPast 10.958265
Ġthis 1.7141472
Ġpoint 0.109504424
Ġthe 0.8233953
Ġcurves 4.9584413
Ġbegin 3.9942477
Ġto 0.02046209
Ġrapidly 6.5355315
Ġfall 6.1119695
, 2.4505637
Ġthis 2.927537
Ġis 0.22468504
Ġwhere 1.8595268
Ġneck 10.191949
ing 0.0067251488
Ġoccurs 0.6789016
. 0.33464068
ĠNeck 5.717608
ing 0.00911523
Ġcontinues 7.875068
Ġuntil 0.6230342
Ġthe 0.35396227
Ġsample 4.1100025
Ġfractures 7.8477316
. 1.1853111
ĠThe 1.4841094
Ġexperiment 6.896407
Ġhas 3.8147976
Ġallowed 7.80253
Ġvarious 7.4961796
Ġcalculations 5.4514737
Ġto 0.83245826
Ġbe 0.032626733
Ġcarried 3.3503952
Ġout 0.0064565935
Ġin 4.224863
Ġorder 0.9271335
Ġto 0.035689913
Ġcompare 4.8896236
Ġthe 0.7264755
Ġvalues 4.4917397
. 2.1710563
ĠIt 3.067125
Ġhas 1.7145015
Ġalso 1.1698194
Ġillustrated 7.1642156
Ġdifferent 5.233067
Ġbehavioural 9.999657
Ġpatterns 2.6214416
Ġand 3.1571462
Ġdifferent 3.9925034
Ġproperties 3.4417696
Ġa 8.559468
Ġmaterial 0.3781861
Ġcan 0.6667467
Ġhave 0.4189938
. 0.5590261
ĠThe 1.5836847
Ġprinciple 8.686122
Ġaim 8.163658
Ġon 7.5399184
Ġan 5.0208783
Ġexample 5.2360578
Ġtens 6.7691813
ile 0.005736664
Ġtest 0.2782777
Ġand 6.939583
Ġtheoretical 7.8302226
Ġevaluation 5.009114
Ġof 1.0623972
Ġresults 7.023916
Ġhas 3.6632712
Ġbeen 0.065753
Ġwell 8.816228
Ġmet 4.1975436
. 0.41929424
ĠErrors 9.1567
Ġcould 4.684816
Ġhave 1.0198865
Ġoccurred 2.623897
Ġduring 2.0578918
Ġcalculations 5.5629354
Ġeither 6.867099
Ġin 2.2847953
Ġthe 0.41204882
Ġform 3.8991756
Ġof 0.008404805
Ġrounding 5.0558705
Ġerrors 1.1300722
Ġor 0.6056955
Ġhuman 9.593357
Ġerror 0.636589
Ġin 3.49091
Ġreading 5.2516155
Ġthe 0.44738752
Ġgraphs 1.9700456
. 0.27472195
ĠOverall 6.807447
Ġit 2.75448
Ġis 1.4501681
Ġfelt 5.0422754
Ġthat 0.18820418
Ġthis 2.0517538
Ġwas 3.8956118
Ġa 0.5617671
Ġsuccessful 2.1753604
Ġand 2.262954
Ġvaluable 4.170102
Ġexperiment 2.7960374
. 0.76103985
