In 4.2490535
Ġan 3.7924995
Ġera 3.1901457
Ġof 1.0140531
Ġautomation 7.3372855
Ġand 1.2342165
Ġfluct 11.128905
uating 0.024948781
Ġauto 9.245596
Ġsales 1.3440351
, 0.33690402
Ġreal 8.255474
Ġwages 8.471015
Ġhave 1.411688
Ġbeen 1.5564065
Ġstagnant 1.5266066
Ġfor 0.74315536
Ġmore 2.8165944
Ġthan 0.016811555
Ġa 0.522024
Ġdecade 0.10169398
Ġfor 7.145977
Ġmany 1.6037775
Ġblue 4.4062495
- 0.50188625
collar 0.0016723684
Ġemployees 4.81142
, 2.2239585
Ġforcing 5.8685746
Ġthem 1.3321853
Ġto 0.12957011
Ġwork 3.0038154
Ġlonger 1.1656051
Ġhours 0.1878791
Ġand 1.4391037
Ġsometimes 4.931221
Ġtwo 7.923789
Ġjobs 1.3019446
Ġto 0.9389925
Ġmake 0.8003629
Ġends 0.051919654
Ġmeet 0.0050009545
. 0.09476869
ĠThis 4.849945
Ġmakes 4.739857
Ġthe 2.6847892
Ġrecent 5.7134075
Ġannouncement 5.328965
Ġby 0.90433735
Ġan 6.089669
Ġauto 2.52213
Ġparts 3.562266
Ġsupplier 1.4445791
Ġall 9.093852
Ġthe 0.3142403
Ġmore 0.012258041
Ġdist 5.204582
ressing 0.023303293
, 1.9252255
Ġas 0.8526093
Ġit 1.2809752
Ġreveals 5.6826043
Ġthe 1.5872178
Ġpossibility 6.095448
Ġof 0.5431619
Ġincreasing 6.1584425
Ġnumbers 5.7112727
Ġof 0.036635015
Ġunion 4.8758483
ized 0.24424046
Ġworkers 0.6660165
Ġearning 6.242934
Ġless 0.81072074
Ġthan 0.38133064
Ġ$ 1.3831103
10 1.6612425
Ġan 0.61499786
Ġhour 0.000841566
Ġin 3.0795965
Ġupcoming 8.46472
Ġyears 0.6877418
. 0.25070572
Ċ 0.30120346
The 10.314227
Ġnews 3.6729167
Ġwas 2.4419262
Ġpublished 4.1756706
Ġby 1.1000724
ĠBR 10.337911
T 3.859803
ĠAutom 4.152196
otive 0.13247783
, 0.8582043
Ġan 2.1894178
Ġauto 1.3141598
Ġsupplier 4.995016
Ġthat 1.5913018
Ġprovides 2.489369
Ġparts 1.1848212
Ġand 1.7481487
Ġproducts 5.6747622
Ġto 0.5387568
Ġcar 4.7513857
Ġmanufacturers 1.3202
Ġsuch 2.9434412
Ġas 0.00808605
ĠGeneral 2.5889695
ĠMotors 0.010065336
. 2.5342827
ĠThe 1.4219302
Ġcompany 0.8567112
bytes:\xe2\x80 2.973786
bytes:\x99 0.00023273456
s 0.0010852267
Ġannouncement 1.5259613
Ġhas 4.1960616
Ġbecome 5.62764
Ġthe 1.5814967
Ġtopic 4.3173113
Ġof 0.012791468
Ġmuch 2.021984
Ġdistress 11.80708
Ġfor 1.8019283
ĠGM 6.854038
Ġand 2.0998266
Ġthe 2.2975318
ĠUnited 3.6244717
ĠAuto 0.07613151
ĠWorkers 0.007320712
Ġ( 1.3577555
U 0.095014386
AW 0.0009645246
) 1.0630231
Ġunion 1.4747834
, 0.9454906
Ġas 1.2339987
Ġit 1.7603031
Ġraises 4.970106
Ġthe 1.1937515
Ġrisk 5.5193796
Ġof 0.31128177
Ġan 3.0653434
Ġimpending 3.1753528
Ġchallenge 9.550103
Ġfor 2.6869228
Ġfuture 6.009513
Ġsalary 7.365285
Ġand 2.744451
Ġwage 2.1224394
Ġnegotiations 1.0541644
. 0.8387284
Ċ 0.4360784
The 2.3629894
Ġissue 4.8624663
Ġfor 4.2424912
ĠBR 6.3605385
T 0.001318622
ĠAutom 0.7127405
otive 0.00047529323
Ġwas 2.8797345
Ġprimarily 7.0482626
Ġrelated 2.683152
Ġto 0.0052823615
Ġthe 0.7553538
Ġpand 15.724925
emic 0.61524904
. 10.419354
ĠAutom 4.3433385
otive 2.0883098
Ġpart 4.7836246
Ġproduction 3.0270393
Ġwas 3.6038477
Ġseverely 5.436337
Ġimpacted 2.1734636
, 3.165251
Ġas 1.3249747
Ġthe 1.7616434
Ġsales 7.428903
Ġof 0.59911627
Ġvehicles 3.4193633
Ġduring 6.3044972
Ġthe 0.37647632
Ġlast 3.1588988
Ġyear 2.1897404
Ġwere 1.9148731
Ġat 3.0310085
Ġtheir 1.8467116
Ġall 5.764516
- 0.09981886
time 0.0011530131
Ġlow 0.55957043
. 0.41811383
ĠAmid 7.9883113
st 0.8006723
Ġthis 1.3790444
, 0.7718975
Ġthe 1.0953647
Ġcompany 0.46532223
Ġhad 3.0630674
Ġto 1.0426816
Ġreduce 3.3766513
Ġits 1.2170315
Ġworkforce 1.0219228
Ġto 2.3303916
Ġmitigate 6.5552335
Ġthe 0.36261064
Ġimpact 1.3105224
Ġof 0.83565885
Ġthe 0.60733294
Ġdevastating 8.322496
Ġpand 9.175573
emic 0.0073436485
Ġon 3.139145
Ġits 1.2706138
Ġfinancial 5.1980953
s 1.3032857
. 0.16593795
ĠUnfortunately 6.2796936
, 0.1172247
Ġthe 1.2389641
Ġresult 5.3186965
Ġof 1.4176484
Ġthese 3.4396842
Ġfactors 5.7555594
Ġled 3.1296391
Ġthe 2.8437612
Ġcompany 0.26613456
Ġto 0.0993004
Ġoffer 5.4225907
Ġa 1.8128841
Ġlower 3.2902422
Ġstandard 5.038498
Ġwage 2.914826
Ġupon 9.761069
Ġres 8.0768795
uming 1.1703022
Ġoperations 2.0745137
. 0.9766716
ĠThe 2.5168982
Ġamount 6.01549
Ġoffered 3.0447807
Ġis 1.9657902
Ġwell 5.4581723
Ġunder 4.6286645
Ġthe 0.43778262
Ġindustry 4.03776
Ġstandard 2.224816
, 1.4787663
Ġwhich 1.7019092
Ġposes 7.5887403
Ġan 2.452972
Ġimminent 5.130607
Ġthreat 0.2708128
Ġfor 2.2741401
Ġthe 1.2156429
Ġfuture 1.8550075
Ġof 0.33243778
Ġthe 0.66872066
Ġauto 2.3263783
Ġindustry 0.24891488
. 0.2915918
Ċ 0.37494478
There 5.1754985
Ġare 1.0062882
Ġseveral 2.1932096
Ġdevelopments 8.049152
Ġthat 0.6530557
Ġhave 2.6731908
Ġemerged 3.7046697
Ġas 2.9988425
Ġa 0.13011476
Ġresult 0.07602687
Ġof 0.04894694
Ġthe 0.7091833
Ġnews 2.0978444
. 0.53057045
ĠFirstly 3.550984
, 0.011415748
Ġthis 4.0048714
Ġdevelopment 5.721312
Ġsheds 6.6500382
Ġa 2.5545197
Ġlight 1.5120492
Ġon 0.08734157
Ġthe 0.38385305
Ġcontinuous 9.154023
Ġdownward 4.5850964
Ġpressure 1.7704259
Ġon 0.29808444
Ġworkers 3.2662618
bytes:\xe2\x80 0.8731544
bytes:\x99 0.00022361554
Ġwages 0.6589836
Ġin 2.0394416
Ġthe 0.48309076
Ġauto 0.96451795
Ġsector 2.6812317
. 0.28478822
ĠA 4.614373
Ġlarge 4.588312
Ġportion 2.1402442
Ġof 0.0088270325
Ġmanufacturers 5.787643
Ġalready 5.6513076
Ġoperate 4.109609
Ġon 2.1920614
Ġa 0.7300754
Ġworkforce 6.018576
Ġhaving 8.633143
Ġworkers 7.5120254
Ġcompensated 7.7971463
Ġon 2.9892273
Ġminimum 6.8137417
Ġwages 1.6305854
, 1.360595
Ġhence 6.320551
Ġpushing 6.3942103
Ġthe 1.4301538
Ġlimits 6.9128714
Ġfurther 5.501741
Ġis 10.671833
Ġincreasingly 6.4514623
Ġworrisome 6.4705725
. 0.21795753
ĠThe 2.8495505
ĠBR 7.3717303
T 0.003371697
Ġannouncement 3.461215
Ġreveals 5.167084
Ġa 2.4781168
Ġnew 3.4239032
Ġreality 2.5059822
Ġwhere 4.910544
Ġthe 1.6750195
Ġbargaining 5.624158
Ġpower 0.3765555
Ġof 0.094578475
Ġworker 5.944206
Ġunions 3.5391827
Ġis 0.87479866
Ġcontinuously 7.0722547
Ġreduced 3.6027334
. 1.0861188
ĠThe 2.4903972
Ġannouncement 4.213768
Ġalso 1.030425
Ġport 10.412463
ends 0.052592143
Ġthe 1.4514561
Ġfuture 3.0762174
Ġof 0.51025486
Ġwage 4.043294
Ġnegotiations 0.38270494
Ġbetween 2.7927828
Ġthe 0.9276028
Ġworkers 4.8031054
, 3.7138724
Ġtheir 3.7571912
Ġcollective 5.546088
Ġunions 3.6338074
, 0.78221434
Ġand 0.13896121
Ġthe 0.62633
Ġmanufacturers 2.0120015
Ġwho 4.895702
Ġemploy 2.068293
Ġthem 0.10259562
. 0.15216875
Ċ 0.7693996
General 8.061003
ĠMotors 0.029138638
Ġhas 1.755371
Ġalready 1.3468847
Ġtaken 3.7885916
Ġnote 5.033061
Ġof 0.106846444
Ġthe 0.5461838
Ġconcerns 5.0430408
. 3.5287635
ĠThe 1.5309558
Ġautomotive 6.643457
Ġgiant 1.1906683
Ġrecognizes 10.501249
Ġthat 0.6477864
Ġits 2.695077
Ġworkers 2.678528
Ġare 1.0420059
Ġprotected 8.451918
Ġby 0.7206393
Ġtheir 2.3516142
Ġrespective 4.875199
Ġcollective 2.9728713
Ġbargaining 1.3148615
Ġagreements 0.43170986
Ġthrough 5.5854187
Ġtheir 2.7967288
Ġrespective 3.1258667
Ġunions 1.5605111
. 0.74956155
ĠThese 4.393094
Ġagreements 0.20530735
Ġoutline 5.936564
Ġprotocol 11.932866
Ġand 1.5185722
Ġarrangements 8.311348
Ġfor 1.0859115
Ġsalary 6.232154
Ġincrements 5.9364
, 1.0198256
Ġjob 3.256862
Ġsecurity 1.228101
, 0.22869466
Ġand 0.794776
Ġemployee 4.9408183
Ġwelfare 4.0656433
Ġmatters 6.777653
. 0.30815566
ĠThe 2.0519114
Ġagreements 4.674615
Ġalso 1.4906634
Ġrecognize 5.6993413
Ġthat 1.0363172
Ġunions 4.9545856
Ġmust 3.223955
Ġnegotiate 3.3584986
Ġfor 2.8562076
Ġbetter 3.3131638
Ġsalaries 4.9946117
Ġfrom 5.8651648
Ġthe 1.4896897
Ġmanufacturers 0.9153363
. 1.3181986
ĠSuch 5.668052
Ġcollective 5.866067
Ġbargaining 0.27878332
Ġagreements 0.678688
Ġdev 12.209083
iate 0.26626197
Ġdepending 11.630443
Ġon 0.11655414
Ġthe 0.4105871
Ġindustry 1.9026737
Ġand 1.3563616
Ġthe 1.3152549
Ġcountry 3.7433815
. 1.4157194
Ċ 1.3418366
Neg 8.726007
otiation 4.954397
Ġbetween 3.1320248
ĠGeneral 6.542342
ĠMotors 0.0037597974
Ġand 0.13483806
Ġits 1.243291
Ġworkers 1.1464529
Ġis 1.1714392
Ġexpected 4.3314214
Ġto 0.053113468
Ġbe 1.3739983
Ġmuch 4.591801
Ġtougher 3.0149655
Ġin 2.104885
Ġthe 0.3434954
Ġupcoming 3.6914518
Ġyears 1.0807396
Ġas 2.2472842
Ġthe 1.0748711
Ġindustry 2.9947717
Ġlooks 4.9211984
Ġto 0.37103128
Ġrecover 7.628383
Ġfrom 0.27372557
Ġthe 0.27276927
Ġnegative 5.222771
Ġimpacts 3.190251
Ġof 0.15913124
Ġthe 0.33458412
Ġpand 2.0220199
emic 0.0032621978
. 0.23777592
ĠNo 7.828327
Ġworker 6.576018
Ġdesires 8.130504
Ġto 0.27266717
Ġsee 3.084545
Ġtheir 1.1230572
Ġwages 1.5332288
Ġstagn 3.9059873
ate 0.08757804
Ġor 2.4266849
Ġreduce 5.3366446
, 2.3504536
Ġand 2.3341901
Ġnegotiations 6.4821115
Ġwith 2.378763
ĠGeneral 4.670782
ĠMotors 0.0020300627
bytes:\xe2\x80 7.0888243
bytes:\x99 0.0015050304
Ġemployee 6.361477
Ġunions 0.60890526
Ġare 1.2911391
Ġexpected 1.1190511
Ġto 0.008399578
Ġgrow 6.5643997
Ġtougher 3.4146216
Ġas 1.7951665
Ġthe 0.84811854
Ġindustry 1.256539
Ġfights 5.724674
Ġever 8.801857
- 0.92399216
rising 3.4611354
Ġcost 3.984622
Ġpressures 2.170762
Ġin 4.2409487
Ġtoday 7.3233695
bytes:\xe2\x80 0.3625376
bytes:\x99 0.0009500853
s 0.00023333247
Ġmarket 2.079626
. 0.11202816
Ċ 0.5519579
Unfortunately 6.4212685
, 0.1863667
Ġa 3.9573693
Ġgrowing 4.643237
Ġnumber 0.5149106
Ġof 0.006766495
Ġmanufacturers 3.4121728
Ġfeel 5.2766614
Ġthat 0.8974283
Ġthey 1.3642447
Ġare 1.6301675
Ġleft 5.866825
Ġwith 0.83924896
Ġfewer 5.772603
Ġoptions 0.8657073
Ġto 1.9532382
Ġcut 5.1422315
Ġdown 4.46948
Ġtheir 2.6226044
Ġexpenses 5.231524
. 1.2581984
ĠThe 1.9982436
Ġreduction 5.9747705
Ġin 0.52770597
Ġwork 4.75368
forces 2.060785
Ġhas 2.2088568
Ġsomewhat 9.451863
Ġmit 5.9978714
igated 0.0018264797
Ġthe 0.36896932
Ġcash 8.63599
Ġflow 1.2377774
Ġand 3.8992677
Ġliquidity 5.122041
Ġchallenges 5.1829453
Ġfaced 2.0059142
Ġby 0.023890128
Ġmanufacturers 1.9697001
. 1.1336032
ĠHowever 2.1615613
, 0.006828786
Ġthe 1.277106
Ġoverall 5.3030524
Ġaccounting 10.32431
Ġgrowth 8.850194
Ġof 1.635127
Ġcompanies 3.2753923
Ġessential 11.827256
Ġremains 8.969884
Ġunder 5.712659
Ġbleak 12.06446
Ġprospects 4.3846
Ġas 2.8379548
Ġthe 1.3255191
Ġprofit 7.377999
Ġmargin 1.8139378
Ġinches 8.419645
Ġlower 3.2271593
. 1.3647773
ĠThis 2.3028436
Ġresults 5.384856
Ġin 0.028094294
Ġan 2.971529
Ġenvironment 4.353114
Ġwhere 0.57882106
Ġworkers 3.1859574
Ġand 3.655547
Ġtheir 1.8523384
Ġunions 0.8393151
Ġdemand 6.8454247
Ġhigher 1.9202014
Ġsalaries 2.2326593
, 2.052983
Ġwhereas 7.0264225
Ġemployers 4.2741084
Ġare 1.301843
Ġconfronted 7.464144
Ġwith 0.14034623
Ġreducing 7.123369
Ġoverhead 6.516958
Ġcosts 0.71313715
Ġto 2.8826904
Ġstay 3.7699013
Ġcompetitive 0.852483
Ġin 1.7797186
Ġthe 1.0138913
Ġlong 4.4914846
Ġterm 1.4736767
. 0.04599144
Ċ 0.57458574
The 1.8809035
Ġfight 7.324995
Ġfor 0.9149092
Ġbetter 1.1885358
Ġwages 0.56386024
Ġis 1.4523515
Ġthe 5.077987
Ġmost 2.712367
Ġpressing 2.3568192
Ġconcern 2.5256383
Ġfacing 2.2853231
ĠGeneral 3.3668993
ĠMotors 0.001331216
Ġand 0.9463769
Ġindustry 8.254502
Ġmanufacturers 4.2792554
Ġfor 5.032155
Ġthe 0.25235292
Ġforeseeable 1.514754
Ġfuture 0.0031233518
. 0.0983832
ĠReports 8.2391
Ġsuggest 2.0202773
Ġthat 0.064990625
Ġit 4.3420224
Ġis 1.0809973
Ġlikely 2.7503395
Ġthat 0.26386455
Ġwidening 12.824086
Ġwage 1.2101473
Ġgaps 0.53065795
Ġwill 0.68768704
Ġpose 6.478536
Ġa 0.4290171
Ġsignificant 2.596711
Ġchallenge 1.3820689
Ġto 0.8131252
Ġmanufacturers 3.1523402
Ġin 1.3450124
Ġthe 0.14623705
ĠUS 7.0229797
, 2.0032294
Ġnot 5.493959
Ġonly 0.74848807
Ġduring 4.6087937
Ġthe 0.21125893
Ġnegotiation 11.056028
Ġprocess 0.9508115
Ġbut 0.9358991
Ġalso 0.3517733
Ġas 3.4586866
Ġa 1.4126455
Ġresult 0.36768106
Ġof 0.010384307
Ġthe 0.7654856
Ġrisk 7.945659
Ġof 0.38670617
Ġlabor 4.3231425
Ġstrikes 2.88209
Ġamong 6.5654454
Ġworkers 1.223043
. 0.30456793
ĠFor 5.448045
ĠGeneral 3.9100301
ĠMotors 0.0013388556
, 0.23775218
Ġit 2.2417433
Ġis 0.49474367
Ġof 4.915231
Ġparamount 1.8551443
Ġimportance 0.13762921
Ġto 0.5002034
Ġnegotiate 4.93384
Ġwith 2.6879354
Ġworker 6.952011
Ġunions 0.43129078
Ġwell 6.0746527
Ġand 5.637259
Ġcome 6.5998588
Ġto 0.54062366
Ġa 1.0436745
Ġmutually 1.752991
Ġbeneficial 0.92059404
Ġsolution 2.0722167
Ġto 2.1386077
Ġprevent 5.117579
Ġany 3.584315
Ġof 4.5973496
Ġsuch 6.906985
Ġproblems 4.138219
. 1.3454614
Ċ 0.6003069
The 1.6953323
ĠBR 2.2067616
T 0.0017548259
Ġannouncement 1.0150516
Ġis 1.8939406
Ġa 1.5866259
Ġtestament 4.722162
Ġto 0.093789294
Ġthe 0.24686474
Ġongoing 3.729181
Ġchallenges 4.095184
Ġthe 3.8823454
Ġindustry 2.330062
Ġwill 3.594883
Ġface 0.48071662
. 2.7466383
ĠHowever 3.5697844
, 0.005940625
Ġit 1.4263645
Ġalso 0.94551927
Ġpresents 4.383113
ĠGM 5.617228
Ġand 0.9561527
Ġthe 0.6437043
ĠU 0.72140276
AW 0.003913333
Ġwith 0.32942674
Ġan 1.8612568
Ġopportunity 0.24505584
Ġto 0.16065353
Ġre 4.6082983
- 0.48024422
evaluate 2.4665918
Ġand 3.4022365
Ġwork 5.0573516
Ġtogether 1.3286316
Ġto 0.776416
Ġestablish 5.4062757
Ġbetter 2.6788664
Ġcollective 2.6424296
Ġbargaining 0.13687661
Ġagreements 0.649227
. 1.2786828
ĠThe 1.7985405
Ġfuture 4.368808
Ġchallenge 9.082592
Ġfor 1.3217514
Ġa 5.377574
Ġhealthy 4.8961625
Ġauto 0.5855053
Ġindustry 0.13959481
Ġwill 1.98371
Ġrequire 4.687144
Ġsensible 10.725877
Ġand 1.8491172
Ġsensitive 8.072667
Ġnegotiations 2.2650926
Ġfrom 4.743571
Ġall 2.8580103
Ġsides 1.3806425
Ġinvolved 4.9068956
. 0.55247784
Ċ 1.2275174
In 3.877747
Ġconclusion 1.9129674
, 0.040103737
Ġthe 1.0403004
Ġannouncement 3.4467385
Ġby 1.0062512
ĠBR 0.17998812
T 0.0007411717
ĠAutom 0.3135867
otive 0.00046921265
Ġis 1.9146711
Ġincredibly 6.411073
Ġprecarious 8.534063
Ġnews 4.909352
Ġfor 0.79724467
Ġthe 0.99232846
ĠAmerican 4.920549
Ġauto 0.22004585
Ġindustry 0.17650096
, 1.9204648
Ġas 1.0047787
Ġit 0.44894254
Ġsuggests 3.6544163
Ġthe 1.9857686
Ġpossibility 1.5982472
Ġof 0.08423686
Ġunion 4.736991
ized 1.0636494
Ġworkers 0.29092467
Ġearning 0.69752264
Ġless 0.33726877
Ġthan 0.08698343
Ġ$ 0.18236619
10 0.037924428
/ 5.482448
hour 0.3184757
. 1.3097674
ĠSuch 3.4502559
Ġnews 3.8767858
Ġpresents 4.727511
Ġa 0.9412417
Ġconsiderable 6.3581605
Ġchallenge 1.9306188
Ġto 0.7613878
ĠGeneral 3.279541
ĠMotors 0.0010384442
Ġand 0.49712312
Ġits 1.998024
Ġunion 3.625199
Ġcounterparts 5.314415
Ġin 1.6557564
Ġtheir 4.3381624
Ġupcoming 4.9337153
Ġsalary 4.868555
Ġnegotiations 0.16683993
Ġin 4.6151013
Ġthe 0.29222474
Ġupcoming 3.315409
Ġyears 0.27666876
. 0.124026574
ĠHowever 3.689997
, 0.0060385456
Ġit 1.9559994
Ġalso 0.5277638
Ġhighlights 3.612714
Ġthe 0.36835876
Ġneed 2.0528622
Ġfor 0.37709144
Ġboth 3.0252142
Ġparties 1.2960795
Ġto 0.073949054
Ġwork 1.6180854
Ġtogether 0.276196
Ġin 2.3040404
Ġdeveloping 5.014158
Ġstronger 5.0655727
, 3.237047
Ġmutually 4.4169984
Ġbeneficial 0.20305441
Ġagreements 0.9922856
, 3.7145805
Ġcapable 8.349732
Ġof 0.017914569
Ġensuring 3.7528074
Ġthat 1.690915
Ġworkers 1.4849749
bytes:\xe2\x80 2.4332337
bytes:\x99 0.00092425174
Ġrights 2.6286676
Ġand 1.5581634
Ġwages 1.4956343
Ġstay 5.0692153
Ġprotected 2.484354
, 4.0836477
Ġwhile 2.3226354
Ġthe 2.990445
Ġindustry 1.2706167
Ġstays 5.355011
Ġprofitable 2.3105552
Ġand 1.5994254
Ġcompetitive 1.2667699
. 0.32578227
