Introduction 7.649731
Ċ 0.5110275
Teen 19.243055
age 2.2412226
Ġsuicide 5.1224904
Ġa 8.284564
Ġis 11.428237
Ġpressing 10.727077
Ġissue 1.1849241
Ġthat 3.3984606
Ġrequires 3.9016755
Ġthe 3.872662
Ġcollective 6.6905503
Ġefforts 1.9933972
Ġof 0.07599825
Ġteachers 6.502511
Ġand 1.0398338
Ġparents 1.2897652
Ġto 1.3192506
Ġaddress 2.621514
Ġeffectively 5.6709285
. 0.34147704
ĠAd 6.8960695
olesc 0.5401952
ence 0.81067085
Ġis 0.38852248
Ġa 0.69783866
Ġperiod 2.5025485
Ġof 0.48539543
Ġvulnerability 6.567036
, 1.776606
Ġand 1.8073943
Ġby 6.1524234
Ġworking 5.097721
Ġtogether 0.52093923
, 0.8976681
Ġteachers 2.1682684
Ġand 0.8395036
Ġparents 0.11245161
Ġcan 0.12912281
Ġfoster 6.057623
Ġsupportive 6.0269766
Ġa 10.086542
Ġenvironment 4.4804373
Ġthat 1.8457433
Ġpromotes 2.4519823
Ġmental 3.6916995
Ġwell 2.1233926
- 0.13431396
being 0.008246497
Ġand 0.9418734
Ġprevents 3.9772758
Ġteenage 4.743538
Ġsuicide 0.12898208
. 0.19427817
ĠThis 2.5712936
Ġessay 5.6586237
Ġwill 1.4440087
Ġexplore 2.516448
Ġrecommendations 9.206184
Ġcollaboration 15.1968975
Ġfor 3.3620064
Ġbetween 11.391586
Ġteachers 1.0003679
Ġand 0.12783612
Ġparents 0.13385813
Ġand 2.5709386
Ġdiscuss 3.6065106
Ġstrategies 2.5176005
Ġfor 0.8747595
Ġeffectively 5.715227
Ġcommunicating 3.2802072
Ġwith 2.1441958
Ġat 8.033472
- 0.47968027
risk 0.0045835716
Ġteenagers 2.6615257
. 0.5793434
Ċ 0.7835007
Recommend 15.761265
ations 0.07403608
Ġfor 1.0705099
ĠCollabor 3.2427554
ation 0.35154855
Ċ 1.021352
1 3.7491405
. 0.15312928
ĠEst 4.586992
ablish 0.010788877
ĠOpen 11.265823
ĠCh 8.7093115
annels 0.5521122
Ġof 0.7603389
ĠCommunication 0.1668157
: 3.322774
Ċ 1.967687
Both 4.6581554
Ġparents 1.6597201
Ġand 0.018517083
Ġteachers 0.099197984
Ġneed 1.9866434
Ġto 0.16017196
Ġinitiate 6.1161094
Ġopen 3.3401313
Ġand 3.009531
Ġongoing 3.3117008
Ġcommunication 1.1231306
Ġto 2.4728374
Ġensure 2.8426995
Ġholistic 8.895431
Ġa 2.9842005
Ġunderstanding 4.1250653
Ġof 0.5602347
Ġa 2.392843
Ġstudent 1.7177322
's 0.19291258
Ġemotional 3.3852832
Ġwell 1.9989539
- 0.054000262
being 0.0044004177
. 0.72561467
ĠTeachers 2.632292
Ġcan 1.9428318
Ġorganize 7.0912933
Ġmeetings 3.5111115
Ġand 2.5691316
Ġparent 5.0827036
- 1.3840692
te 0.041515738
acher 0.026620623
Ġconferences 0.24381633
, 2.4928782
Ġallowing 4.9321074
Ġthem 2.6929312
Ġto 0.14654203
Ġshare 2.0935483
Ġtheir 1.8897535
Ġconcerns 1.8963931
Ġand 0.69699717
Ġinsights 6.246912
Ġabout 2.2553658
Ġa 1.6817634
Ġstudent 0.2883634
's 0.08169609
Ġbehavior 2.7122653
Ġperformance 12.548147
. 1.5404955
Ġand 8.500062
Ġacademic 8.107799
ĠSimilarly 15.110037
, 0.07116786
Ġparents 0.46386376
Ġshould 3.396425
Ġactively 4.975971
Ġengage 2.2086444
Ġwith 1.7848008
Ġteachers 1.4404439
, 2.8600438
Ġval 8.752055
uing 0.017513786
Ġtheir 1.2707479
Ġobservations 6.6412
Ġand 0.4177605
Ġseeking 5.6462464
Ġtheir 1.2255944
Ġguidance 4.064966
Ġin 2.259121
Ġidentifying 4.517062
Ġof 9.708072
Ġsigns 6.0506034
Ġdistress 12.1574
. 1.7127485
Ċ 1.348757
2 0.9774883
. 0.0049909493
ĠMental 9.564598
ĠEnhanced 15.718614
ĠHealth 6.2857904
ĠEducation 3.3389404
: 0.40315813
Ċ 0.6027639
Parents 4.233842
Ġand 0.8800449
Ġteachers 0.09880452
Ġmust 3.2163198
Ġcollaborate 4.3277655
Ġto 0.5616351
Ġadvocate 6.6812296
Ġfor 0.23283157
Ġenhanced 3.8186405
Ġmental 0.6549801
Ġhealth 0.15339267
Ġeducation 0.52558726
Ġin 1.7197896
Ġschools 1.6801534
. 0.47301584
ĠAn 5.585894
Ġinclusive 6.1521325
Ġcurriculum 2.1389089
Ġshould 2.8383915
Ġinclude 1.2879968
Ġteaching 5.0239973
Ġstudents 2.9996772
Ġabout 0.6069957
Ġtheir 4.2144256
Ġemotions 3.4737332
, 0.76378554
Ġcoping 4.646475
Ġmechanisms 1.8195463
, 0.22976181
Ġand 0.4167734
Ġhow 2.8329
Ġto 0.41324335
Ġstress 9.545966
. 6.0536933
Ġmanage 14.024001
ĠBy 11.388316
Ġincluding 5.074325
Ġmental 3.878835
Ġhealth 0.093541995
Ġdiscussions 6.5114975
Ġas 4.0506024
Ġa 2.1802714
Ġregular 4.2091327
Ġpart 0.4262261
Ġof 0.01277921
Ġthe 1.418233
Ġeducation 4.421895
Ġprocess 1.798283
, 0.11599313
Ġboth 4.6504765
Ġteachers 0.83664924
Ġand 0.015769165
Ġparents 0.04574358
Ġhelp 6.267965
Ġto 1.6799629
Ġnormal 6.2841187
ize 0.009128463
Ġconversations 5.531926
Ġaround 3.1265152
Ġmental 1.3736327
Ġhealth 0.20186387
Ġand 1.4782984
Ġprovide 4.232919
Ġstudents 1.5213845
Ġwith 0.21679041
Ġimportant 6.197023
Ġinformation 1.5024292
Ġon 3.2971451
Ġhow 1.2555773
Ġto 0.11072734
Ġseek 4.5121403
Ġhelp 0.55784833
. 0.83075637
Ċ 1.315615
3 0.13186792
. 0.0040404936
ĠEnc 3.593507
ourage 0.049284395
Ġan 5.1930223
ĠIn 3.610892
clusive 0.06309034
ĠClass 6.1051216
room 0.055966098
ĠEnvironment 1.0360622
: 0.03264656
Ċ 0.033292826
Te 1.2570709
achers 0.06643027
Ġcan 2.9675066
Ġwork 3.099424
Ġtowards 5.7828684
Ġfostering 2.8942738
Ġan 0.9503301
Ġinclusive 0.9136101
Ġand 2.267768
Ġsupportive 1.2058903
Ġclassroom 1.170527
Ġenvironment 0.305321
Ġthat 2.1161964
Ġpromotes 1.106081
Ġmental 0.7519217
Ġwell 1.0537279
- 0.01134503
being 0.0042517167
. 0.8886981
ĠBy 2.50095
Ġpreventing 7.0779834
Ġbullying 2.1808329
Ġand 0.7891516
Ġcreating 4.347557
Ġa 0.91139114
Ġsafe 0.4372061
Ġspace 1.4287469
Ġfor 0.76078767
Ġto 9.132992
Ġexpress 5.160227
Ġstudents 5.04386
Ġthemselves 10.858605
, 0.17703159
Ġteachers 0.28897452
Ġcan 0.58487636
Ġcontribute 4.666488
Ġsignificantly 5.3942275
Ġto 0.20953847
Ġreducing 2.668503
Ġthe 1.2045975
Ġrisk 2.1972926
Ġof 0.14650773
Ġteenage 2.5064297
Ġsuicide 0.036283642
. 0.18049538
ĠIn 3.2857733
forming 6.2485404
Ġparents 1.6281542
Ġabout 1.1094826
Ġthe 0.95484275
Ġsteps 5.859998
Ġtaken 5.3154826
Ġto 0.62946004
Ġmaintain 5.738251
Ġan 2.448691
Ġinclusive 0.68768585
Ġclassroom 1.0471748
Ġwill 4.1402645
Ġhelp 1.3895136
Ġensure 3.4523542
Ġconsistency 6.875034
Ġand 1.3156844
Ġcollaboration 5.643908
Ġbetween 1.6623757
Ġhome 9.217987
Ġand 0.37256208
Ġschool 0.10296329
. 0.66659147
Ċ 0.8814362
4 0.15501814
. 0.0027396835
ĠEarly 8.046708
ĠIdentification 5.86454
Ġand 1.4381346
ĠIntervention 0.2848735
: 0.1674128
Ċ 0.010575186
Te 1.1492767
achers 0.023604421
Ġand 1.1767642
Ġparents 0.028420905
Ġshould 1.576061
Ġcollaborate 2.7359753
Ġto 0.2546921
Ġidentify 0.7857429
Ġwarning 7.0535097
Ġsigns 0.012049829
Ġand 2.6194248
Ġrisk 5.681444
Ġfactors 0.11381046
Ġassociated 2.65672
Ġwith 0.021030834
Ġteenage 2.604242
Ġsuicide 0.06918171
, 2.6569593
Ġsuch 2.2299745
Ġas 0.0054245624
Ġwithdrawal 6.320727
Ġfrom 1.3864477
Ġsocial 3.2468789
Ġactivities 1.6261047
, 0.49419767
Ġdeclining 8.161956
Ġacademic 1.3444582
Ġperformance 0.18393879
, 0.08758832
Ġor 3.5770066
Ġsudden 6.681517
Ġmood 3.0486863
Ġswings 0.9079502
. 0.14609851
ĠTeachers 1.9924856
, 4.994295
Ġwith 5.367056
Ġtheir 4.09063
Ġregular 6.3553095
Ġinteractions 4.881795
Ġwith 0.11680331
Ġstudents 0.5291092
, 0.24731831
Ġcan 0.36327872
Ġact 4.95917
Ġas 0.24624404
Ġthe 3.5514834
Ġfirst 1.6879892
Ġline 0.41201285
Ġdefense 10.380184
Ġof 2.7957373
Ġby 9.72944
Ġreporting 5.1491714
Ġconcerns 3.8676836
Ġpromptly 7.3035884
Ġto 0.80640465
Ġparents 2.7148602
. 0.9909342
ĠParents 2.3968194
, 2.118127
Ġin 2.2617834
Ġturn 0.33422306
, 0.005270976
Ġshould 2.052785
Ġtake 3.8987985
Ġthese 5.354446
Ġconcerns 0.7614685
Ġseriously 0.51778215
Ġand 0.34715506
Ġwork 2.3877654
Ġcollectively 7.5185585
Ġwith 2.0607793
Ġteachers 0.30905202
Ġto 0.19417126
Ġoffer 5.8755975
Ġappropriate 3.0688925
Ġsupport 2.3447604
Ġand 1.8012695
Ġintervention 2.6139202
Ġtailored 8.037955
Ġto 0.085158445
Ġthe 1.0382773
Ġstudent 1.6465855
's 0.20005822
Ġneeds 1.3419595
. 0.09058037
Ċ 0.72534895
Str 9.52569
ateg 0.07536345
ies 0.0042293896
Ġfor 0.21134487
ĠEffect 4.649546
ively 0.23416111
ĠCommun 0.4754084
icating 0.0058543487
Ġwith 0.42948696
ĠAt 1.0308343
- 0.119316995
R 0.02777226
isk 0.0005375511
ĠTeen 2.2011652
agers 0.11752888
Ċ 0.11537054
1 1.8843849
. 0.01585939
ĠActive 7.448087
ĠList 5.3064137
ening 0.007803508
: 0.5108388
Ċ 0.15661295
When 4.68232
Ġcommunicating 3.8327987
Ġwith 0.19490428
Ġat 1.077352
- 0.06245205
risk 0.005567266
Ġteenagers 0.46623692
, 0.090396754
Ġboth 2.6535017
Ġparents 0.7794589
Ġand 0.008446163
Ġteachers 0.027075535
Ġshould 1.1202532
Ġprioritize 6.964064
Ġactive 0.91183877
Ġlistening 0.011154489
. 1.1624875
ĠGen 12.195681
uine 0.2473619
Ġempathy 5.9246283
, 2.6781814
Ġattention 5.577106
, 2.157036
Ġand 0.20579226
Ġunderstanding 2.3710938
Ġcan 2.8440745
Ġalleviate 5.801317
Ġany 4.483647
Ġfeelings 3.843562
Ġof 0.21566187
Ġisolation 1.3345331
Ġor 1.6336118
Ġhopeless 4.377768
ness 0.0031611419
Ġthat 1.4608089
Ġthe 5.476157
Ġteenager 1.63303
Ġmay 0.18150528
Ġbe 0.71440256
Ġexperiencing 0.4896886
. 0.13298798
ĠBy 2.8440418
Ġlistening 1.341393
Ġactively 2.5383582
Ġwithout 5.8976836
Ġjudgment 1.1774652
, 0.44819802
Ġadults 6.800021
Ġcan 0.14134574
Ġprovide 3.1230955
Ġa 1.700305
Ġsafe 2.5358188
Ġspace 0.91075534
Ġfor 0.6703482
Ġteenagers 2.1896918
Ġto 0.0695157
Ġstart 7.442449
Ġsharing 3.9553611
Ġtheir 0.41511244
Ġthoughts 2.0091524
Ġand 0.38641113
Ġemotions 4.173203
. 0.6633194
Ċ 0.7069176
2 0.50687695
. 0.0023731308
ĠPat 9.504971
ience 0.0805242
Ġand 1.5745437
ĠNon 5.6556287
- 0.42383808
Jud 3.3717608
gment 0.116876274
al 1.6083456
ĠAtt 5.5479856
itude 0.94794965
: 0.032662943
Ċ 0.0065282257
Te 1.6634281
achers 0.025653018
Ġand 0.7183768
Ġparents 0.008524308
Ġmust 2.7382853
Ġpatience 10.492006
Ġmaintain 8.740922
Ġand 3.5229344
Ġavoid 4.659204
Ġpassing 6.789122
Ġjudgments 3.8918495
Ġwhen 3.095107
Ġdiscussing 1.7130264
Ġsensitive 5.70285
Ġtopics 0.70497525
Ġwith 1.61884
Ġat 1.7554326
- 0.014951974
risk 0.008385395
Ġteenagers 0.18910326
. 0.089631215
ĠRemember 7.7518005
Ġthat 0.6353293
Ġthey 4.4225917
Ġmay 2.9761276
Ġfind 5.0696583
Ġit 1.1626699
Ġdifficult 0.5401883
Ġto 0.05600108
Ġarticulate 4.403504
Ġtheir 0.598126
Ġemotions 3.7544677
, 1.5050876
Ġfears 4.2534976
, 0.02629337
Ġor 1.3658782
Ġstruggles 5.209662
. 1.8200469
ĠBy 1.806203
Ġcreating 6.174198
Ġan 1.3614988
Ġenvironment 0.74279535
Ġfree 4.720932
Ġfrom 0.7893202
Ġcriticism 3.843721
Ġand 1.0740778
Ġjudgment 0.87842584
, 0.083021134
Ġadults 5.5395985
Ġcan 0.13624412
Ġencourage 2.5485544
Ġteenagers 1.7992995
Ġto 0.03013425
Ġspeak 3.5329304
Ġopenly 1.6622967
, 2.361116
Ġfostering 7.4639277
Ġtrust 4.4182343
Ġand 0.332486
Ġcommunication 4.590596
. 0.46171293
Ċ 0.94327074
3 0.043326404
. 0.0019949449
ĠCollabor 4.277994
ative 1.4455558
ĠProblem 5.3430033
- 1.0154526
S 0.19734251
olving 0.0013037603
: 0.20112586
Ċ 0.003715523
Instead 6.923312
Ġof 0.0013844551
Ġimposing 4.2184463
Ġsolutions 2.9231412
, 1.9592185
Ġteachers 0.6415622
Ġand 0.18983907
Ġparents 0.011448245
Ġshould 1.1539499
Ġengage 4.634208
Ġin 0.41403413
Ġproblem 1.5151081
- 0.22421078
s 0.015486775
olving 0.00031012256
Ġcollaborative 7.4908957
Ġwith 3.1953237
Ġat 3.520048
- 0.005443981
risk 0.0105248885
Ġteenagers 0.17752962
. 0.2750043
Ġteenagers 10.597863
ĠEnc 8.693627
ourage 0.05798074
Ġto 6.7042103
Ġexpress 5.1329775
Ġtheir 0.6637199
Ġon 9.219501
Ġthoughts 6.62577
Ġpotential 13.642257
Ġsolutions 2.6724222
Ġand 2.0852644
Ġwork 3.5647218
Ġtogether 1.028627
Ġto 0.13479379
Ġcreate 2.9489594
Ġan 2.1772301
Ġaction 3.0663815
Ġplan 0.10428126
, 3.8981593
Ġthem 14.607197
Ġempowering 11.413054
Ġtake 10.454702
Ġto 4.9246354
Ġownership 11.528347
Ġof 0.5607576
Ġtheir 0.6755253
Ġmental 5.754621
Ġwell 1.1273088
- 0.015441738
being 0.012670971
. 0.31544164
Ġapproach 11.276304
ĠThis 4.9737997
Ġenhance 12.714495
Ġwill 6.5552645
Ġtheir 7.6814713
Ġconfidence 4.4108768
Ġand 1.0673686
Ġreinforce 8.319737
Ġthe 1.7492775
Ġidea 3.435145
Ġthat 0.12503304
Ġthey 1.2381109
Ġare 0.8124525
Ġnot 2.1932533
Ġalone 0.4056888
Ġin 1.4587946
Ġtheir 0.7370303
Ġstruggles 2.385684
. 0.27394474
Ċ 0.52669734
4 0.15247104
. 0.0016140387
ĠRefer 6.287762
ring 3.9706595
Ġto 1.1893125
ĠProfessional 6.4836884
ĠHelp 1.181849
: 0.12798758
Ċ 0.0075088413
Te 0.8167088
achers 0.0065250467
Ġand 0.26406586
Ġparents 0.011460181
Ġshould 0.8330847
Ġbe 3.7837656
Ġaware 2.2557175
Ġof 0.68232137
Ġtheir 3.1425169
Ġlimitations 7.762782
Ġand 1.5816894
Ġbe 3.4071805
Ġprepared 2.1811197
Ġto 0.041813273
Ġrefer 0.79987013
Ġat 2.5238662
- 0.061229806
risk 0.0060795033
Ġteenagers 0.261873
Ġto 0.1504908
Ġmental 3.2550616
Ġhealth 0.022632845
Ġprofessionals 0.23214202
Ġwhen 2.5591056
Ġnecessary 1.417198
. 0.059784077
ĠThis 3.3742769
Ġcommunication 6.9099674
Ġshould 3.0357852
Ġbe 0.8427607
Ġcarried 5.4741473
Ġout 0.045267433
Ġsensitive 7.253916
ly 0.010424301
, 1.0057538
Ġhighlighting 7.088547
Ġprofessional 7.312576
Ġassistance 4.1568756
Ġas 1.9851941
Ġan 1.8265767
Ġadditional 4.038744
Ġsupport 3.9984846
Ġsystem 3.410286
Ġrather 5.7761416
Ġthan 0.0062971506
Ġa 1.5830903
Ġreplacement 3.7283595
Ġfor 0.33700672
Ġfamily 3.8075182
Ġor 1.9963707
Ġschool 1.8113818
Ġalarming 17.845984
Ġrelationships 6.6119924
. 0.13376239
Ċ 0.264073
Conclusion 2.3832047
Ċ 0.13715757
The 2.312638
Ġrise 7.6751957
Ġof 0.4779377
Ġteenage 2.1014724
Ġsuicide 0.052928682
Ġnecess 8.004479
itates 0.02828012
Ġa 1.579947
Ġjoint 5.353992
Ġeffort 0.17550974
Ġbetween 1.0771111
Ġteachers 0.8326011
Ġand 0.060907375
Ġparents 0.033975214
Ġto 0.3756478
Ġcreate 3.2580028
Ġa 0.62875104
Ġprotective 6.8541155
Ġand 1.8531432
Ġnurturing 2.8782597
Ġenvironment 0.40123197
Ġfor 0.75635153
Ġour 5.4578905
Ġyouth 3.1997232
. 0.1825142
ĠBy 2.015292
Ġestablishing 5.389346
Ġopen 2.3569686
Ġchannels 0.7485793
Ġof 0.033431053
Ġcommunication 0.047574267
, 0.7682498
Ġmental 8.06756
Ġenhancing 7.3741245
Ġhealth 1.7081516
Ġeducation 0.17584014
, 0.20055133
Ġfostering 5.7903824
Ġan 1.3501718
Ġinclusive 0.21211638
Ġclassroom 0.2959682
, 2.708854
Ġearly 6.7646017
Ġidentification 0.057187103
, 3.5458553
Ġand 0.13951251
Ġintervention 3.781887
, 0.6630815
Ġparents 2.693416
Ġand 0.5183381
Ġteachers 0.075799234
Ġcan 0.06741389
Ġwork 2.2051916
Ġtogether 0.30928174
Ġto 0.15387438
Ġaddress 3.9675853
Ġthis 2.5590608
Ġcritical 2.4990163
Ġissue 0.5517008
. 0.32312778
ĠEmploy 8.767382
ing 0.054375287
Ġstrategies 3.3433065
Ġsuch 0.894848
Ġas 0.015082244
Ġactive 2.144113
Ġlistening 0.015317412
, 0.5495826
Ġa 5.3461194
Ġnon 3.2642937
- 0.22855294
jud 0.0039323587
gment 0.056826927
al 0.0041617514
Ġattitude 0.18060784
, 0.16444981
Ġcollaborative 6.053174
Ġproblem 0.015075649
- 0.41774088
s 0.006606643
olving 0.0005186486
, 0.070156135
Ġand 0.23055497
Ġappropriate 6.718625
Ġreferrals 1.541292
Ġto 1.093258
Ġprofessional 0.77394164
Ġhelp 0.40645096
Ġwill 1.8360835
Ġcontribute 3.9129827
Ġsignificantly 1.1631014
Ġto 0.10991734
Ġeffectively 5.9004574
Ġcommunicate 4.808137
Ġwith 0.34553427
Ġat 0.51178783
- 0.017607143
risk 0.009192347
Ġteenagers 0.1756917
. 0.20123088
ĠThrough 6.3810353
Ġconsistent 4.461055
Ġcollaboration 3.8525722
, 0.6673582
Ġwe 3.1387992
Ġcan 0.12854771
Ġcreate 3.3080156
Ġa 0.47870028
Ġsupportive 3.1766913
Ġnetwork 8.438949
Ġthat 0.8149733
Ġensures 5.5829887
Ġthe 2.3457434
Ġemotional 4.471541
Ġwell 0.4712589
- 0.025857838
being 0.01244801
Ġof 0.113317676
Ġour 0.40143123
Ġadolescents 4.6877437
, 3.1412756
Ġpreventing 3.465612
Ġteenage 3.9002197
Ġsuicide 0.027793707
Ġand 2.3755457
Ġfostering 3.7653213
Ġlifelong 4.6401258
Ġresilience 3.7315147
. 0.2300993
