In 4.2490535
Ġthe 1.8133665
Ġ 9.999827
Ġdemanding 20.01129
Ġand 3.2229626
Ġfast 4.4346914
- 1.5008292
paced 0.11126726
Ġhealthcare 8.0266695
Ġsetting 4.6951623
, 0.32922766
Ġnurses 4.7620325
Ġare 1.5751204
Ġconstantly 4.1464214
Ġexposed 4.2159777
Ġto 0.017619736
Ġhigh 4.130577
levels 12.784032
Ġof 0.0075015705
stress 12.073865
. 1.3137438
ĠFrom 6.141427
Ġdealing 4.598321
Ġwith 0.013675872
crit 13.396999
ically 0.83005655
Ġill 0.16082396
Ġpatient 4.2526603
st 5.029438
o 1.36229
Ġmanaging 2.0168593
Ġlong 5.726226
working 8.872525
hours 3.184562
, 0.82433975
Ġthese 5.6902337
Ġprofessionals 4.0791883
Ġare 1.5293666
Ġoften 2.2433343
Ġat 3.05174
Ġrisk 1.8982297
Ġof 0.5359128
Ġexperiencing 3.8233957
Ġburn 3.103198
out 0.041706633
Ġand 2.410351
Ġa 4.3683643
Ġdecline 2.9607704
in 1.6393986
Ġtheir 1.4642818
Ġemotional 5.354452
Ġwell 1.6646273
- 0.11332397
being 0.003612901
. 0.14556603
ĠHowever 4.5543075
, 0.06478278
Ġthere 2.468569
Ġis 0.64917314
Ġa 1.4739099
Ġpowerful 5.77334
c 5.8470497
oping 3.9091213
Ġmechanism 0.41470143
Ġthat 0.9511098
Ġcan 1.251075
Ġhelp 0.9089878
Ġnurses 1.8627115
Ġin 4.948049
Ġmanaging 3.7945352
Ġtheir 1.8813126
stress 2.7693834
Ġlevels 2.9392323
Ġand 1.4567245
Ġp 9.928127
Ġre 8.043832
vent 0.92566615
ing 1.9133971
Ġburn 0.1809918
out 0.028532326
Ġ– 5.6183133
Ġlearned 8.725894
Ġopt 13.99933
i 1.3988899
Ġmism 9.928536
. 4.0668697
ĠBy 5.39921
Ġcultivating 7.0504065
Ġa 2.0366082
Ġpositive 2.8138568
Ġand 2.6750152
Ġoptimistic 5.128507
Ġmindset 4.1308503
, 0.3244814
Ġnurses 0.76701164
Ġcan 0.3733106
Ġre 4.4630384
Ġd 5.47705
uc 2.888895
ethe 3.5895758
Ġrisk 5.259315
Ġof 0.4298312
Ġburn 0.11317026
out 0.02336043
Ġand 0.84187526
improve 10.897528
Ġtheir 0.23322985
Ġemotional 1.7344915
Ġwell 0.30315784
- 0.024618214
being 0.029171178
, 2.7271166
Ġultimately 5.817789
Ġleading 1.926928
Ġto 0.06395005
Ġbetter 1.8780429
Ġpatient 1.4334571
Ġcare 1.2108665
. 0.67516077
Ċ 0.8814844
Lear 20.69469
ned 0.15346995
Ġoptimism 2.8462567
Ġis 0.87404424
Ġthe 2.0131443
Ġbelief 2.778254
Ġin 3.2670732
one 8.978269
's 1.0885494
Ġa 9.446601
Ġb 3.865377
ility 0.16294213
toc 14.544794
ont 4.738517
rol 1.2327672
Ġthe 1.9920069
Ġoutcome 3.562509
Ġof 0.119999506
Ġsituations 3.380969
Ġand 2.1524658
Ġthe 2.8427012
Ġbelief 4.1930065
Ġthat 0.5011651
Ġsetbacks 8.578982
Ġare 2.0051537
Ġtemporary 4.110077
Ġand 1.658465
can 4.2608175
Ġbe 0.18712312
Ġovercome 0.738001
. 0.5942682
ĠThis 2.7153375
mind 9.625356
set 0.024160067
Ġis 1.2235022
Ġcrucial 3.1959126
Ġ 10.358017
Ġfor 9.817637
Ġnurses 0.7632683
Ġas 3.5798888
Ġthey 0.3282015
Ġface 1.9063674
Ġnumerous 5.740495
Ġchallenges 0.91452086
Ġand 2.463088
Ġuncertainties 7.0727425
Ġin 1.6586243
Ġtheir 0.72815824
Ġdaily 3.315745
Ġwork 1.7209014
. 0.62306273
ĠBy 4.423238
Ġadop 10.1652355
Ġt 1.2201498
ing 0.10883326
Ġthis 2.6499715
Ġoutlook 4.253451
, 0.20674147
Ġnurses 0.25005835
Ġare 2.5700693
Ġmore 2.1158066
Ġlikely 0.44057998
Ġto 0.14605048
Ġview 6.697567
Ġsetback 9.279805
Ġs 2.4450073
Ġor 6.8547516
Ġstressful 6.588381
Ġevents 1.7448415
Ġas 0.54653233
Ġtemporary 2.5831122
Ġobstacles 6.187095
Ġrather 3.044557
Ġthan 0.090069994
Ġinsur 6.0894566
m 8.1467495
oun 10.332399
Ġtab 10.288168
Ġle 5.107194
Ġbarriers 6.093413
. 1.2555668
ĠInstead 6.1477976
Ġof 0.297264
Ġfeel 8.039483
in 2.880285
Ġg 0.57575965
Ġdefeated 5.6893206
, 1.3359227
Ġthey 1.65227
Ġare 2.0454183
Ġencouraged 3.583197
Ġto 0.09729834
Ġfind 5.2512193
Ġsolutions 2.0793307
, 2.6864886
learn 9.6338825
from 7.3441157
Ġexperiences 4.0868926
, 0.58047193
Ġand 0.18425837
Ġapproach 5.5851865
Ġchallenges 2.3541355
Ġwith 0.77287596
Ġresilience 5.256512
. 0.87994874
Ċ 2.4160926
One 8.452863
Ġway 2.5497699
Ġin 3.0543437
Ġwhich 0.06577884
Ġlearned 2.0947127
Ġoptimism 0.23601286
Ġserves 7.064408
Ġas 2.2947304
Ġa 0.30480987
Ġcoping 2.3411062
Ġmechan 10.074941
i 0.88041764
Ġsm 4.3075585
Ġfor 2.3529117
Ġnurses 0.10600923
Ġis 0.18504816
Ġby 0.99753076
Ġhelping 2.5182338
Ġthem 0.5094861
Ġref 5.322874
rame 1.3148493
Ġneg 6.39735
a 3.130312
Ġt 0.1433956
ive 0.37226778
Ġsituations 1.9671715
. 1.9794824
ĠI 6.736926
Ġn 0.5017704
Ġhigh 9.210137
- 2.135476
stress 0.13966565
Ġmoments 5.5763493
, 0.26339054
Ġnurses 1.4780093
Ġmay 2.0774875
Ġencounter 6.4117274
Ġdifficult 4.0459266
Ġpatients 3.5225115
, 1.1712112
Ġmedical 4.400527
Ġerrors 3.2666752
, 0.081580184
Ġor 0.9317687
Ġconflicts 7.773383
Ġwith 1.5398111
Ġcolleagues 2.1472726
. 0.77586293
ĠThese 2.7639647
Ġ 5.2929688
Ġexperiences 5.506154
Ġcan 1.1215504
Ġeasily 4.8903456
Ġlead 2.1455152
Ġto 0.20534661
Ġfeelings 2.7802505
Ġoff 12.803805
rust 7.766404
ration 8.849571
, 0.8156713
Ġguilt 5.054261
, 0.058515295
Ġor 2.8722546
Ġanger 2.7615795
. 0.36241922
ĠHowever 3.290873
, 0.0055982415
Ġby 2.0182257
Ġutilizing 6.439963
Ġlearned 0.8818683
Ġoptimism 0.27966797
, 0.48984066
Ġnurses 0.17666501
Ġcan 0.55171794
Ġref 1.5545989
rame 0.47148305
Ġthese 0.93872017
Ġsituations 2.4946644
Ġand 2.126676
Ġfocus 5.524899
Ġ 4.9966702
Ġon 4.2113295
Ġthe 1.512418
Ġpositive 0.42016515
as 7.770509
pects 2.675165
. 2.180696
ĠFor 2.9562135
Ġexample 0.13045056
, 0.018535946
Ġinstead 4.159166
Ġof 0.015264028
Ġdwelling 4.4341335
Ġon 0.17229243
Ġa 3.339529
Ġmistake 6.8406544
, 0.9807323
an 6.685928
Ġoptimistic 5.64141
Ġnurse 0.12221704
Ġmay 1.1865423
Ġview 3.9062934
Ġit 1.637703
Ġas 0.11140581
Ġa 0.6673524
Ġlearning 0.6256871
Ġopportunity 0.9024036
Ġto 2.9358058
Ġimpro 10.359364
Ġve 2.1888533
Ġtheir 2.431272
sk 8.509989
ills 0.0018104833
Ġand 0.83477455
Ġprevent 6.0134478
Ġfuture 1.0335462
Ġerrors 3.3733284
. 0.15534213
ĠThis 2.302324
Ġref 5.050269
ram 0.2687872
ing 0.06236917
Ġof 1.6175061
Ġnegative 1.5954528
Ġeve 12.363651
Ġn 0.9542477
ts 5.2007837
Ġenhances 6.8555107
n 8.226176
urses 1.67378
' 0.28828838
Ġability 0.95201063
Ġto 0.024580415
Ġmanage 3.4444997
Ġstress 0.9974689
, 1.9245658
Ġmaintain 4.5285187
Ġa 1.6463923
Ġpositive 0.26136947
Ġattitude 1.6905578
, 0.15411799
and 3.2665937
Ġcontinue 5.401638
Ġproviding 5.2647
Ġquality 1.5065135
Ġcare 0.9875297
to 7.765274
Ġtheir 0.45719853
Ġpatients 0.08309077
. 0.14421237
Ċ 1.0905075
Moreover 7.295742
, 0.0067891437
Ġlearned 2.2420974
optim 3.4353988
ism 0.004012511
Ġaids 6.4285836
Ġnurses 0.3343
Ġin 0.34915596
Ġmaintaining 3.88588
Ġa 0.64010113
Ġsense 3.986968
Ġof 0.031027643
Ġc 7.438203
Ġont 4.726699
rol 0.49534535
Ġover 1.0111274
Ġtheir 0.9338115
Ġwork 4.3089314
Ġenvironment 2.6575222
. 0.69286907
In 6.7868147
Ġthe 2.1837792
Ġhealthcare 3.6474986
Ġsetting 0.34517458
, 0.033201143
Ġnurs 8.393047
Ġes 2.2057092
Ġoften 2.279916
Ġhave 2.2660632
Ġlittle 2.8050904
Ġcontrol 1.1406891
Ġover 0.13954061
Ġexternal 8.655898
Ġfactors 1.2216644
Ġsuch 1.1947632
Ġas 0.052441083
Ġpatient 4.202075
Ġoutcomes 5.1358786
Ġor 1.2572249
staff 5.508866
ing 3.6721094
Ġshortages 3.2529578
. 0.22692703
ĠHowever 2.9795856
, 0.003796035
Ġby 1.5942593
Ġcultivating 1.9532835
Ġlearned 1.8422148
Ġoptimism 0.78238547
, 0.28368604
n 5.067546
urses 0.061597414
Ġcan 0.45435348
Ġshift 6.248171
Ġtheir 0.4445802
Ġattention 2.3811874
Ġto 1.145163
Ġaspects 5.641755
Ġthey 5.202336
Ġcan 1.6411622
Ġcontrol 0.33558774
, 1.4340662
such 3.5702128
Ġast 9.6687565
he 0.8534238
ir 5.469104
Ġcommunication 7.933962
Ġskills 1.9116855
, 0.81489354
Ġtime 4.4570265
Ġmanagement 0.24047731
, 0.5230154
Ġand 0.70685065
self 9.976319
- 0.11821356
care 2.267736
. 0.807568
ĠThis 2.43761
Ġinternal 5.6772833
Ġfocus 2.681142
Ġon 2.9497924
Ġcontro 3.6048234
ll 3.4840355
able 4.7002783
Ġfactors 1.5997367
Ġh 7.111106
Ġel 6.631326
ps 0.34889564
Ġnurses 0.6745916
Ġavoid 2.424283
Ġfeeling 4.831082
Ġhelpless 4.6439195
Ġor 2.063113
Ġoverwhelmed 2.3279068
Ġby 2.5859299
Ġthe 2.0170417
Ġex 7.134498
tern 2.3304281
Ġal 3.6800575
Ġstress 3.6931403
ors 0.39197633
. 1.819923
ĠConsequently 5.9361167
, 0.0059253625
Ġthey 3.219999
Ġfeel 4.746989
Ġempowered 3.8352442
Ġand 1.9024031
Ġcan 2.3574734
Ġadapt 6.0342264
Ġmore 4.362587
Ġeffectively 1.4787465
, 3.110317
Ġreducing 4.6321383
Ġthe 1.8523903
Ġrisk 1.5673436
Ġof 0.07873037
Ġburn 0.25141105
out 0.0669805
. 0.46925518
Ċ 1.3172711
Import 8.431886
a 7.8815703
Ġn 0.52769697
t 0.618729
ly 4.051593
, 0.4819315
Ġthe 2.976934
application 13.550484
Ġof 0.07400841
Ġlearned 0.22151987
Ġoptim 2.318396
i 2.8567474
Ġsm 3.0877616
sign 10.627424
ificantly 2.482665
Ġimproves 1.9017248
Ġemotional 5.743697
Ġwell 0.45537108
- 0.027646335
being 0.052573197
Ġin 3.2270284
Ġnurses 0.86338925
. 0.5487475
ĠBy 3.0673249
Ġfocusing 4.0787125
Ġon 0.5931954
Ġpositive 1.6254634
Ġthoughts 5.735342
Ġand 0.77769095
Ġmaintaining 6.817634
Ġa 0.50622976
Ġsense 1.9164903
Ġof 0.09195843
Ġoptimism 5.2188783
, 0.1788274
Ġnurses 0.27044085
Ġcan 0.8321879
Ġcounter 7.4175034
bal 9.20157
anc 2.9595253
Ġe 3.2567754
Ġthe 1.5330569
Ġemotional 4.5416865
Ġtoll 2.5009794
Ġthat 2.4961262
Ġtheir 4.529645
Ġwork 1.0176063
Ġmay 3.6933157
Ġbring 3.860919
. 0.80345917
ĠStudies 7.063059
Ġhave 0.62845075
Ġshown 0.9025858
Ġthat 0.115075245
Ġoptimistic 4.2762027
Ġindividuals 5.3569884
Ġhave 2.026391
Ġlower 2.2833352
l 8.953324
Ġe 4.4080625
vel 0.6567484
s 0.39610404
Ġof 0.027584875
Ġpsychological 5.317221
Ġdistress 1.1723363
, 1.3748841
Ġreduced 5.045554
Ġsymptoms 3.3548203
Ġof 0.032748196
Ġanxiety 3.086793
Ġand 1.2457137
Ġdepression 0.71919787
, 0.04130499
Ġand 0.5079892
Ġa 2.17371
Ġgreater 1.9280428
Ġoverall 5.1236115
Ġsense 1.9436648
Ġof 0.07364835
Ġwell 1.4699547
- 0.13073614
being 0.014326151
. 0.5798262
ĠThis 3.3825736
Ġmeans 4.6111965
Ġthat 0.20278196
Ġby 2.2083821
del 11.758721
iber 0.820478
ately 0.11470011
Ġadopting 4.3964195
Ġa 2.0950937
Ġpositive 0.7896025
Ġ 6.62844
Ġand 6.5009785
Ġhopeful 4.32639
out 11.882042
look 0.11292239
, 0.115171626
Ġnurses 0.10119055
Ġcan 0.36285326
Ġbetter 3.4852335
Ġcope 1.9320011
Ġ 4.2707696
Ġwith 1.6560463
Ġthe 2.123119
daily 9.936598
Ġstresses 1.6306788
Ġof 0.7532926
Ġtheir 1.3317362
prof 10.92637
ession 0.16081786
Ġand 2.4517035
Ġ 8.684983
Ġenhance 7.4929905
Ġtheir 0.3137226
Ġemotional 1.1159074
Ġresilience 6.0756645
. 0.17043094
Ċ 2.5504391
Additionally 6.2249994
, 0.0074383775
Ġlearned 2.557505
Ġoptimism 1.1533484
Ġcan 1.8228663
Ġfoster 6.492385
Ġa 1.5811169
Ġsupp 11.822707
Ġor 4.7647104
t 0.5794537
ive 1.6130936
Ġand 1.8578463
Ġcollaborative 5.570222
Ġwork 1.3329774
Ġculture 1.7703422
Ġwithin 3.1602077
Ġhealthcare 3.1048148
Ġsettings 2.4143417
. 0.24620178
ĠWhen 3.9251344
Ġnurses 0.70774585
Ġare 1.2086074
Ġoptimistic 4.8763576
, 0.58421475
Ġthey 0.4074813
are 6.2497196
Ġmore 0.9891064
Ġli 12.98717
Ġke 1.6588349
ly 0.3890338
Ġto 0.034142718
Ġengage 3.237575
Ġin 0.4853574
Ġpositive 2.7760112
Ġcommunication 3.6656318
, 1.6816591
Ġteamwork 6.4294114
, 0.03464766
Ġand 0.34434742
Ġconflict 6.899972
Ġresolution 0.8931471
. 0.52602565
ĠOptim 9.112874
istic 1.472922
Ġnurses 0.38296655
Ġare 0.96133876
Ġbetter 4.173501
Ġequipped 3.502485
Ġto 0.16956995
Ġhandle 2.7645962
Ġconflicts 3.8549657
Ġwith 2.632181
col 8.292509
le 0.056172267
agues 0.008342462
, 0.8860971
Ġas 4.1049566
Ġthey 0.59936285
Ġ 8.568055
Ġare 3.2678626
Ġmore 1.4256145
Ġlikely 1.2640432
Ġto 0.046401784
Ġfo 9.684399
Ġc 3.8431854
us 2.6344967
ona 11.619162
Ġsolution 5.0860453
- 5.3470316
oriented 1.1376375
Ġapproach 4.2597456
Ġrather 2.847726
Ġthan 0.18022685
Ġdwelling 6.506279
Ġon 0.20332354
neg 9.321735
at 2.5703533
iv 0.46489227
Ġe 0.4343846
Ġemotions 4.127618
. 0.4080083
ĠBy 2.9629157
Ġpro 7.0431056
Ġmot 4.891434
ing 0.6450276
Ġa 2.3523016
Ġpositive 0.53497213
Ġwork 2.7138908
Ġenvironment 2.2514966
, 0.30036137
Ġlearned 3.1294475
Ġoptimism 1.9106622
Ġcontributes 6.468422
Ġto 0.3197245
Ġenhanced 6.9538136
coll 7.120105
abor 0.0041058273
ation 1.1191089
, 0.9115432
Ġdecreased 5.5248265
Ġworkplace 5.259157
Ġtension 4.1559396
, 0.064658426
Ġand 0.3513391
Ġultimately 6.905428
Ġhigher 4.8000803
job 6.3254366
Ġsatisfaction 0.14915591
Ġamong 3.0664182
Ġ 8.296449
Ġnurses 1.2482916
. 0.14372328
This 5.1750345
, 5.991899
Ġin 0.24174146
Ġturn 0.05086962
, 0.011038632
Ġleads 3.1621232
Ġto 0.042028103
Ġbetter 1.589116
Ġpa 11.702912
Ġt 1.1576678
ient 0.40532798
Ġcare 0.20951518
Ġas 5.0984554
Ġnurses 0.5409102
Ġare 0.9395239
Ġab 8.375656
Ġle 2.491215
Ġto 0.32674575
Ġwork 2.7019856
Ġtogether 2.0516875
Ġmore 2.1572437
Ġeffectively 0.7644994
Ġa 10.006437
Ġn 0.91246706
d 0.03018513
Ġefficiently 4.435956
. 0.7302314
Ċ 0.88726074
In 3.270637
Ġconclusion 0.6756995
, 0.026525535
Ġlearned 0.90589607
Ġoptimism 0.7646759
Ġis 1.0503391
a 6.60656
Ġpowerful 2.1779664
Ġcoping 0.42612132
Ġmechanism 0.073205404
Ġthat 1.1245289
Ġhelps 2.6067321
Ġnurses 0.11027048
Ġmanage 2.408496
Ġstress 0.88145155
levels 7.0731134
, 2.1915224
Ġreduce 2.5386093
Ġthe 4.215448
Ġrisk 0.24892989
Ġof 0.013199645
Ġburn 0.009187272
out 0.03097472
, 0.047819205
Ġand 0.12881158
Ġimprove 1.6708231
Ġemotional 1.301645
Ġwell 0.3081104
- 0.014163864
being 0.059096843
Ġin 3.683505
Ġthe 1.1783055
Ġhealth 3.8302402
c 8.325841
Ġare 6.683147
Ġsetting 2.735223
. 0.04806374
By 5.6917353
Ġref 6.9611573
ram 0.21167643
ing 0.002312742
Ġnegative 0.454275
Ġsituations 1.0895947
, 1.7615361
Ġmaintaining 8.777722
Ġa 0.37706283
Ġsense 1.093848
Ġof 0.009956182
Ġcontrol 2.3605769
, 1.8432144
Ġand 0.27962852
Ġfostering 4.9334707
Ġa 0.50656325
Ġpositive 1.564293
Ġwork 1.8902698
Ġenvironment 1.6353031
, 0.085215576
Ġnurses 0.40268037
Ġc 8.287522
Ġan 1.7800095
Ġbenefit 4.245964
Ġfrom 0.27945754
Ġthe 2.3816404
Ġeffects 5.2567625
Ġof 0.15503122
Ġlearned 0.43838465
Ġoptimism 1.5217988
. 0.5016838
ĠUltimately 5.299996
, 0.02965768
Ġthis 1.1879007
Ġpositive 3.8447316
Ġmindset 4.4726496
Ġcontributes 5.881897
Ġto 0.11852427
Ġtheir 6.6076937
ability 8.603904
to 6.216517
Ġprovide 3.4915533
Ġquality 1.4746416
Ġpatient 0.95226824
Ġcare 0.01839715
Ġand 1.6618778
Ġenhances 7.7210503
Ġtheir 0.63408804
Ġoverall 3.8105369
Ġjob 3.7030106
Ġsat 8.957241
i 2.1660776
Ġs 3.219909
f 0.09334375
action 1.6187406
Ġand 3.0057096
Ġwell 3.1318629
- 0.038559493
Ġbeing 4.4494185
Ġas 5.186298
Ġhealth 5.9788957
Ġcare 0.8015334
Ġprofessionals 0.51008224
. 0.034782954
