Once 7.457718
Ġupon 2.4314559
Ġa 0.013918585
Ġtime 0.055899724
, 0.5593676
Ġin 2.8399086
Ġa 1.0355775
Ġbustling 8.581274
Ġcity 1.8664842
Ġknown 4.5667915
Ġas 0.24084179
ĠMetro 8.8175955
ville 3.4447677
, 0.13913547
Ġthere 1.6863748
Ġlived 0.8223214
Ġa 0.40142286
Ġsuperhero 9.187775
Ġnamed 1.22896
ĠGrace 8.870495
. 0.9631638
ĠGrace 2.3136475
, 3.424924
Ġa 2.078428
. 4.7804127
k 0.0018507823
. 0.0011550435
a 0.00021085552
. 0.13976987
Ġ" 3.2669377
The 1.5355483
ĠGuardian 5.520259
," 1.5088482
Ġhad 2.1931643
Ġalways 4.1800776
Ġbeen 0.84020495
Ġthe 2.185394
Ġepit 4.729494
ome 0.0061189625
Ġof 0.0034932296
Ġstrength 2.1710746
Ġand 0.7941707
Ġjustice 4.593537
. 0.5045899
ĠHowever 4.346457
, 0.026674613
Ġwhat 5.838844
Ġmade 3.2179084
Ġher 0.83134705
Ġtruly 2.8679178
Ġunique 2.97704
Ġwas 0.17931336
Ġher 1.290456
ĠSuper 8.039153
S 8.717014
uit 2.0173876
Ġ( 5.108059
TM 6.403744
), 1.271932
Ġwhich 0.7517942
Ġhad 3.9520295
Ġmiraculous 7.8889894
Ġproperties 3.3905
Ġthat 1.4628654
Ġwent 6.4223566
Ġbeyond 0.53830016
Ġits 4.881228
Ġdazzling 10.569876
Ġappearance 1.8087335
. 0.24406478
Ċ 1.8372798
Gr 13.084733
ace 0.0029355017
's 1.3617845
ĠSuper 1.7270507
S 0.44362217
uit 0.0018559778
Ġ( 4.063867
TM 0.0117201945
) 0.066974916
Ġpossessed 6.6447153
Ġincredible 4.045928
Ġstrength 1.6195163
Ġand 1.0373976
Ġthe 3.7850628
Ġability 0.47581705
Ġto 0.009299128
Ġwithstand 3.180497
Ġextreme 3.444715
Ġconditions 3.0765486
, 1.4043858
Ġbut 3.3609397
Ġwhat 3.7844954
Ġtruly 2.3139954
Ġamazed 2.1806877
Ġher 1.1461014
Ġwas 0.36623555
Ġthe 1.2640718
Ġfact 2.046452
Ġthat 0.019646542
Ġit 1.0828333
Ġwas 1.4422946
Ġcompletely 2.923069
Ġmachine 6.2767777
Ġwash 9.490771
able 0.0026192577
. 0.57608426
ĠJust 5.6478324
Ġlike 1.6181563
Ġany 2.134556
Ġother 0.30029804
Ġarticle 5.8906345
Ġof 0.076231666
Ġclothing 0.13957712
, 0.1828973
Ġit 1.4738094
Ġrequired 5.7915463
Ġgentle 5.475307
Ġcare 3.760913
Ġwith 4.730726
Ġsimilar 7.894662
Ġcolors 6.132106
, 1.9729409
Ġmild 6.8152676
Ġdeter 0.2823863
gent 2.429843
, 0.29390445
Ġand 0.3138334
Ġa 1.6227672
Ġtumble 7.18397
Ġdry 0.2216403
Ġon 2.8990562
Ġlow 0.61739856
. 1.6718501
ĠThe 3.1172159
Ġone 5.071419
Ġcaveat 5.1535354
, 2.326597
Ġhowever 0.5693919
, 0.023564145
Ġwas 0.044066202
Ġa 5.5559278
Ġclear 6.687302
Ġwarning 3.3354268
Ġlabel 1.850534
Ġattached 4.0095935
Ġto 0.11708297
Ġit 2.5500188
: 1.4961127
ĠDO 5.4039564
ĠNOT 0.010033367
Ġiron 6.4094353
. 1.9063127
Ċ 1.0080799
As 4.7052035
Ġthe 2.610248
Ġcity 5.057713
's 0.7028384
Ġdistress 12.819077
Ġcalls 3.169871
Ġkept 4.794041
Ġringing 2.825432
Ġthrough 3.4859672
Ġher 2.120109
ĠSuper 5.6377997
S 0.07988496
uit 0.00042723241
Ġ( 0.5639172
TM 0.0017656917
)' 7.857162
s 0.0026395747
Ġintegrated 8.228274
Ġcommunication 5.7116046
Ġsystem 0.38680622
, 0.06254678
ĠGrace 0.4408975
Ġfound 4.4633193
Ġherself 0.27972552
Ġin 2.0231304
Ġa 0.9994612
Ġconstant 4.7179785
Ġbattle 2.1489139
Ġagainst 1.9753926
Ġthe 1.1496954
Ġforces 2.800507
Ġof 0.090998925
Ġevil 0.767561
. 0.56830823
ĠWhenever 5.097151
Ġtrouble 5.6112056
Ġarose 2.2773855
, 0.33587986
Ġshe 0.9934582
Ġwould 1.3648481
Ġswiftly 6.668134
Ġdon 9.411387
Ġher 0.33927423
ĠSuper 2.5592022
S 0.12878038
uit 5.3477528e-05
Ġ( 0.10647602
TM 0.0013340816
) 0.22497082
Ġand 0.23923029
Ġrace 5.4958057
Ġoff 2.6970475
Ġto 0.21668209
Ġprotect 3.7238834
ĠMetro 2.1221373
ville 0.005758604
's 2.5298903
Ġinnocent 3.4757605
Ġcitizens 0.2593298
. 0.4779524
Ċ 1.3056132
One 3.959197
Ġday 0.5628266
, 0.11895259
Ġa 2.5398784
Ġparticularly 4.6433477
Ġferocious 5.0235476
Ġvillain 3.4363706
Ġknown 2.551178
Ġas 0.08098867
ĠDr 4.739016
. 0.057906523
ĠIron 8.275315
claw 5.2510457
Ġemerged 4.7102346
Ġfrom 0.14246617
Ġthe 0.889561
Ġshadows 1.3583754
. 2.1108098
ĠWith 2.8846133
Ġhis 1.2562945
Ġmechanical 6.1798053
Ġex 6.142376
os 0.02712465
keleton 0.042358916
Ġand 1.971975
Ġintimidating 6.6448026
Ġpresence 4.397797
, 0.07290991
Ġhe 0.9756056
Ġbecame 4.63753
Ġthe 1.4112308
Ġcity 4.689432
's 0.008321082
Ġmost 1.6890554
Ġformidable 3.6308386
Ġadversary 2.7606108
. 0.2944976
ĠGrace 1.8336881
Ġknew 3.963094
Ġshe 1.9037478
Ġhad 0.50273395
Ġto 0.15121564
Ġconfront 5.3682933
Ġhim 0.7870879
, 1.1846161
Ġbut 0.67431533
Ġshe 1.3266789
Ġalso 2.552978
Ġhad 1.6820451
Ġto 0.2467326
Ġremember 5.4912724
Ġthe 2.3743339
ĠSuper 4.506619
S 0.02745591
uit 0.0002704148
Ġ( 0.1823506
TM 0.0011521796
)' 1.1215236
s 0.0021676817
Ġcare 7.7912893
Ġinstructions 1.9129343
. 0.7318646
Ċ 1.581976
Ign 7.4745154
iting 3.7261195
Ġher 1.2701811
Ġpowers 6.5799932
, 1.4678932
ĠGrace 1.2263792
Ġengaged 6.6281023
Ġin 2.2751925
Ġan 2.5534692
Ġepic 1.5323333
Ġbattle 0.19319403
Ġwith 0.6829262
ĠDr 0.54445416
. 0.0012870487
ĠIron 0.003178662
claw 0.0015280105
. 0.74105984
ĠThe 2.8234007
Ġvillain 4.7513103
's 2.1381125
Ġmetallic 5.176163
Ġclaws 4.239689
Ġcame 5.2216997
Ġcrashing 2.3193784
Ġdown 0.138212
, 2.5194836
Ġleaving 4.60947
Ġdeep 4.989232
Ġmarks 4.2116394
Ġon 1.2181491
ĠGrace 1.8279711
's 0.073305614
ĠSuper 2.4989176
S 0.013525378
uit 6.7069195e-05
Ġ( 0.035463855
TM 0.0008208669
). 0.84485114
ĠF 6.455233
ocused 5.4732766
Ġon 0.23061006
Ġmaintaining 5.5448575
Ġher 0.7006922
Ġstrength 3.0817668
, 0.4160615
Ġshe 1.3272651
Ġfought 3.4778934
Ġback 1.5003226
Ġwith 1.8087847
Ġunw 9.725017
avering 0.0021996964
Ġdetermination 1.0134984
. 0.4679807
ĠWhile 5.090474
Ġshe 1.4970555
Ġwas 1.3029785
Ġable 1.8187495
Ġto 0.0036350002
Ġsub 5.3608294
due 0.034487035
ĠDr 0.9180798
. 0.0006674501
ĠIron 0.0014926723
claw 0.0008312465
, 0.53596425
Ġthe 1.9786111
Ġbattle 4.1333394
Ġhad 2.7960126
Ġtaken 3.5274878
Ġits 1.7145164
Ġtoll 0.054576885
Ġon 0.21582235
Ġher 0.12328201
Ġprecious 5.9091735
ĠSuper 0.6492707
S 0.016607793
uit 3.678925e-05
Ġ( 0.027770791
TM 0.00038674276
). 0.43113014
Ċ 1.1503642
Return 9.130818
ing 0.017762573
Ġto 0.47975343
Ġher 0.8203512
Ġsecret 7.052625
Ġhide 2.3760564
out 0.4303668
, 0.20445271
ĠGrace 0.3148411
Ġrealized 4.1904035
Ġthe 3.219712
Ġtime 5.187994
Ġhad 0.26189172
Ġcome 0.10754835
Ġto 0.34974664
Ġface 3.3604324
Ġthe 1.4242023
Ġunavoidable 10.473235
: 2.2561963
Ġwashing 9.416324
Ġher 0.51342964
ĠSuper 0.43096983
S 0.0050724824
uit 4.7399757e-05
Ġ( 0.024937846
TM 0.0007356825
). 1.1193419
ĠFollowing 6.3783903
Ġthe 1.1839585
Ġcare 5.277558
Ġinstructions 0.08168051
Ġmeticulously 8.730017
, 0.28255287
Ġshe 0.5597997
Ġsorted 8.489241
Ġher 2.935904
Ġlaundry 2.9818637
Ġand 1.4142542
Ġgathered 6.7184877
Ġthe 1.8129412
Ġappropriate 3.8258767
Ġcolors 5.019805
. 1.4215564
ĠAs 2.768965
Ġshe 0.48480573
Ġpoured 6.8567886
Ġthe 1.0879554
Ġmild 8.58749
Ġdeter 0.2767696
gent 0.002754445
Ġinto 0.71142924
Ġthe 0.6324199
Ġwashing 1.9778131
Ġmachine 0.057981115
, 0.13591878
Ġshe 0.63857317
Ġcouldn 4.3503895
't 0.012225638
Ġhelp 0.07597561
Ġbut 0.061743036
Ġfeel 2.4991736
Ġa 0.64671487
Ġsense 2.3495455
Ġof 0.0008208669
Ġnervous 7.181386
ness 0.27713403
. 0.35392013
ĠOnce 5.6818514
Ġthe 1.2097342
Ġprocess 5.2995253
Ġbegan 2.6448238
, 0.03379868
Ġthere 4.0690355
Ġwas 0.33552584
Ġno 0.5070205
Ġturning 1.2188351
Ġback 0.044012696
. 0.2015217
Ċ 1.2327216
As 2.7592013
Ġthe 1.3714885
Ġmachine 2.281453
Ġhum 4.080869
med 0.0005592584
Ġto 1.5326405
Ġlife 0.3487243
, 0.07196934
ĠGrace 0.51574653
Ġanx 7.957057
iously 0.0004367719
Ġawaited 3.6872532
Ġthe 0.23686919
Ġoutcome 3.8592596
. 0.6838426
ĠMoments 7.813015
Ġlater 0.19162177
, 0.043483023
Ġthe 0.9078001
Ġmachine 1.9184462
Ġsignaled 7.7210035
Ġthe 1.5661246
Ġend 1.5255394
Ġof 0.23171087
Ġthe 0.3352349
Ġcycle 1.0141965
. 0.5104674
ĠGrace 1.6829416
Ġhes 8.891925
it 0.0060573746
antly 0.0009778243
Ġopened 2.8463848
Ġthe 0.1695734
Ġdoor 0.5827666
, 1.4147263
Ġher 4.3364387
Ġheart 2.1120572
Ġracing 1.3021035
. 0.6694493
ĠTo 5.4169455
Ġher 0.08972646
Ġaston 3.7366166
ishment 0.00086769613
, 0.019599674
Ġher 2.6888669
ĠSuper 0.41042933
S 0.0033553108
uit 2.1889093e-05
Ġ( 0.0072573693
TM 0.0004291388
) 0.028656045
Ġemerged 6.0304747
Ġfrom 0.37597612
Ġthe 0.104340866
Ġdepths 5.894156
Ġof 0.17786074
Ġthe 0.111246556
Ġwashing 0.6050469
Ġmachine 0.008098005
, 1.6993823
Ġshimmer 5.15852
ing 0.004214067
Ġwith 1.077246
Ġthe 2.4630134
Ġsame 3.918317
Ġvibrant 2.7588825
Ġcolors 0.44130886
Ġas 0.53058106
Ġbefore 1.2479213
. 0.09784511
ĠThe 3.286255
Ġmighty 7.0347095
Ġsuit 3.133102
Ġhad 2.141481
Ġretained 6.8796334
Ġits 0.36467764
Ġstrength 1.8143471
Ġand 0.75956404
Ġpristine 7.2583294
Ġcondition 2.7598069
. 0.6317475
Ċ 0.86488867
With 3.6207488
Ġa 2.2374735
Ġsigh 2.7549279
Ġof 0.26460692
Ġrelief 0.093671076
, 0.020112157
ĠGrace 0.14857773
Ġhung 5.8111434
Ġher 0.91125005
Ġbeloved 5.063838
ĠSuper 1.0778998
S 0.0028333447
uit 2.2126573e-05
Ġ( 0.016136598
TM 0.0006519426
) 0.08061057
Ġup 3.4056177
Ġto 0.83164513
Ġdry 0.021106621
. 0.9642386
ĠAs 2.5822399
Ġtime 6.0931396
Ġpassed 0.47297162
, 0.13980147
Ġshe 1.0443687
Ġhoped 6.7156706
Ġit 3.3950486
Ġwould 0.20618553
Ġbe 2.0577338
Ġready 3.2510164
Ġfor 0.7612741
Ġher 1.6078116
Ġnext 0.39860123
Ġmission 3.2882133
. 0.31331095
ĠHowever 2.6932738
, 0.0074399626
Ġshe 2.4987593
Ġreceived 6.494924
Ġan 2.0304883
Ġurgent 2.4230227
Ġcall 0.94764173
Ġfrom 0.48838532
Ġthe 1.9778278
Ġcity 2.7520204
, 4.242182
Ġsummoning 4.579541
Ġher 0.033358455
Ġonce 5.463579
Ġmore 1.9460704
. 0.6381958
Ċ 1.1539226
In 4.210245
Ġher 3.2252276
Ġhaste 3.7553635
, 1.286509
ĠGrace 0.36327538
Ġrealized 4.81695
Ġthat 0.864529
Ġher 1.5873274
ĠSuper 1.0453694
S 0.0032253605
uit 2.141132e-05
Ġ( 0.010358351
TM 0.00047869395
) 0.0371075
Ġwas 1.214243
Ġnot 2.7458916
Ġyet 2.8612976
Ġfully 1.592828
Ġdry 1.5662608
. 0.2317867
ĠRemember 8.756418
ing 0.004869175
Ġthe 0.71019787
Ġwarning 2.5633044
Ġon 3.7948215
Ġher 1.500021
Ġsuit 6.883737
, 1.2874836
Ġwhich 6.461764
Ġexplicitly 6.3246503
Ġforb 3.7037957
ade 0.028761731
Ġiron 2.1135597
ing 0.0457087
, 0.12991376
Ġshe 0.6499402
Ġknew 4.3030157
Ġshe 1.0282791
Ġhad 1.0972346
Ġto 0.37695807
Ġfind 3.3610423
Ġanother 1.853654
Ġsolution 1.5996826
. 0.21820036
ĠD 5.796096
etermined 0.480255
Ġto 0.19711202
Ġprotect 5.0443115
Ġthe 2.0849905
Ġcity 0.85565233
, 1.0135089
Ġshe 0.6134504
Ġwore 8.758664
Ġthe 1.6579773
Ġslightly 7.6152625
Ġdamp 2.2598171
ĠSuper 0.82165676
S 0.0062484466
uit 3.7983213e-05
Ġ( 0.011481826
TM 0.0006913669
) 0.08752736
Ġand 2.414211
Ġembarked 7.2333646
Ġon 0.24592675
Ġher 1.3224834
Ġnext 0.5961981
Ġmission 0.31446314
. 0.18015826
Ċ 0.36964467
Eng 9.627435
aging 0.17263934
Ġin 0.62627304
Ġanother 3.8908932
Ġintense 4.530866
Ġbattle 0.136474
Ġagainst 1.8471756
Ġan 4.751392
Ġarmy 3.2356627
Ġof 0.017484428
Ġevil 1.9758872
Ġhen 5.6536746
ch 0.00033158858
men 0.016490534
, 0.25144467
ĠGrace 0.30664876
's 2.8995144
ĠSuper 0.71606886
S 0.0062082033
uit 2.5703772e-05
Ġ( 0.0046335123
TM 0.0005194802
) 0.016478475
Ġproved 2.730744
Ġformidable 6.1580763
, 2.4531918
Ġeven 3.16419
Ġwithout 3.3894727
Ġiron 5.688556
ing 0.016591491
. 0.3468604
ĠIts 7.403053
Ġflexibility 7.387797
Ġand 0.9834816
Ġinnate 8.363819
Ġdurability 2.2480352
Ġallowed 1.5644428
ĠGrace 1.940136
Ġto 0.042679276
Ġcontinue 5.26637
Ġher 1.4163247
Ġefforts 4.923486
, 2.5700042
Ġund 8.975283
eter 0.14291288
red 0.0036139425
Ġby 0.31736487
Ġexternal 8.580639
Ġfactors 3.3656857
. 0.4254758
ĠWith 3.5634964
Ġeach 3.1242402
Ġpunch 7.8481917
Ġand 1.5825086
Ġkick 0.40967557
, 0.33225423
Ġshe 1.6102247
Ġovercame 6.804266
Ġher 1.240361
Ġadversaries 3.528467
, 1.6054258
Ġproving 4.024265
Ġthat 1.0510659
Ġtrue 6.301996
Ġpower 3.2333224
Ġoriginated 8.597459
Ġnot 2.9445171
Ġfrom 0.94715893
Ġappearances 7.9613557
Ġbut 1.1737056
Ġfrom 0.5064424
Ġwithin 3.0623002
. 0.1072997
Ċ 0.48578155
As 2.8493602
Ġthe 1.2112808
Ġbattle 2.067176
Ġsubs 8.348435
ided 0.0029997684
, 0.08136461
Ġthe 2.3965254
Ġcity 1.6210256
Ġrejo 5.934638
iced 0.18444018
Ġin 1.993908
Ġtheir 3.9824598
Ġhero 2.218343
's 0.34627715
Ġvictory 1.8320051
. 0.34121433
ĠGrace 1.710714
's 2.1381552
ĠSuper 1.6286389
S 0.0038451785
uit 2.6419024e-05
Ġ( 0.005000475
TM 0.00080499804
) 0.042680766
Ġhad 1.6674248
Ġonce 3.454517
Ġagain 0.07595851
Ġtri 6.221389
ump 0.00016483347
hed 5.3363005e-05
, 2.4460483
Ġdemonstrating 5.37772
Ġits 2.0626178
Ġremarkable 4.6288366
Ġqualities 3.630497
Ġthrough 5.4179306
Ġthe 1.9138775
Ġwear 7.515047
Ġand 0.16515742
Ġtear 0.008293194
Ġof 0.27114224
Ġrelentless 6.663477
Ġfights 6.54405
. 0.33691922
ĠIt 3.4650242
Ġwas 0.639219
Ġa 2.0259538
Ġtestament 1.5611868
Ġto 0.025470002
Ġthe 1.4037441
Ġinnovation 10.613831
Ġand 0.97069633
Ġthought 6.5121922
Ġbehind 4.6350937
Ġthe 0.66309565
Ġdesign 1.4221308
. 1.741806
Ċ 0.8815084
Gr 1.8808112
ace 0.0049144547
Ġreturned 3.8101017
Ġhome 1.9298239
, 1.6384197
Ġher 3.7458491
ĠSuper 1.395749
S 0.0017877847
uit 2.3435998e-05
Ġ( 0.0019695028
TM 0.00118112
) 0.02420621
Ġclinging 8.638543
Ġto 0.35223076
Ġher 0.07906428
Ġdamp 10.497202
Ġbody 2.1083386
Ġbut 9.67907
Ġalso 3.7131371
Ġembod 8.923451
ying 0.0012857355
Ġthe 0.9430122
Ġstrength 2.926218
Ġand 0.79519975
Ġresilience 2.5557652
Ġshe 2.137817
Ġheld 6.248708
Ġwithin 2.1228914
. 0.5864181
ĠUn 7.1887035
f 3.0517552
azed 0.13979097
Ġby 0.21412711
Ġminor 8.648929
Ġimperfect 5.188564
ions 0.0073160892
, 0.2938404
Ġshe 0.82984775
Ġgladly 7.056003
Ġawaited 7.69732
Ġthe 1.0808729
Ġnext 0.5297852
Ġadventure 2.7047458
. 0.38461286
ĠHer 5.455802
ĠSuper 1.7002516
S 0.005382795
uit 4.573365e-05
Ġ( 0.0070736087
TM 0.0009186434
) 0.057062276
Ġmay 6.3214316
Ġnot 2.0278454
Ġhave 0.7018952
Ġbeen 1.0536058
Ġiron 4.213819
ed 0.19284794
Ġto 4.566452
Ġperfection 0.33430174
, 0.15622626
Ġbut 0.01664694
Ġit 0.6505166
Ġhad 1.8830831
Ġshown 4.584697
Ġher 1.1984257
Ġthat 0.9387394
Ġtrue 2.6178987
Ġpower 2.1639292
Ġcame 2.3850546
Ġnot 1.8060648
Ġfrom 0.09278752
Ġthe 1.943267
Ġimm 8.445201
ac 0.76243275
ulate 0.11141518
Ġexterior 4.222506
Ġbut 0.9578748
Ġfrom 0.33610156
Ġthe 2.2539446
Ġheart 2.8457024
Ġof 2.5134137
Ġa 2.2208624
Ġhero 1.5714977
. 0.20148028
Ċ 0.38006127
From 5.439982
Ġthat 1.9904945
Ġday 1.0747935
Ġforward 1.0042195
, 0.0106796445
ĠGrace 0.24026531
Ġembraced 5.811209
Ġher 0.8588231
ĠSuper 1.2019917
S 0.006031649
uit 6.563869e-05
Ġ( 0.007962339
TM 0.00081824145
)' 1.6249708
s 0.0018971825
Ġuniqueness 6.0930085
Ġwith 3.4577901
Ġopen 3.9815726
Ġarms 0.06857962
, 2.1481862
Ġrecognizing 6.5712605
Ġthat 0.7061454
Ġher 2.8353028
Ġresilience 7.556127
Ġand 1.0726438
Ġunw 4.9843483
avering 0.0013751438
Ġdetermination 1.9180777
Ġmade 3.4262998
Ġher 0.12708896
Ġa 1.2744296
Ġtrue 1.2189124
Ġsuperhero 4.023447
, 3.7764668
Ġregardless 4.0083146
Ġof 0.009694465
Ġhow 2.4117591
Ġflaw 10.445109
lessly 0.031525496
Ġher 1.8763828
Ġsuit 0.92403024
Ġwas 1.1904688
Ġpresented 6.0624638
. 0.16870481
ĠThe 4.9891086
ĠGuardian 5.6091785
, 2.5592577
Ġwith 4.3682046
Ġher 0.695671
Ġmachine 8.522575
Ġwash 4.565556
able 0.16961415
ĠSuper 0.7230132
S 0.030531948
uit 7.8038276e-05
Ġ( 0.038643822
TM 0.0011913251
), 0.19036809
Ġcontinued 5.1778684
Ġto 0.21823965
Ġprotect 3.5580392
ĠMetro 0.5003532
ville 0.005043787
, 1.7427212
Ġinspiring 5.22087
Ġothers 2.477157
Ġto 0.1729021
Ġfind 4.3753633
Ġstrength 3.3554254
Ġin 1.0726329
Ġtheir 0.4004177
Ġown 1.0541936
Ġvulnerabilities 7.548624
Ġand 1.9248786
Ġto 2.8225975
Ġunleash 7.003893
Ġtheir 0.29003844
Ġhidden 5.991345
Ġpower 2.4856005
Ġ- 7.1072545
Ġjust 3.9475324
Ġlike 1.194106
Ġshe 3.2615104
Ġdid 1.7107996
. 0.13200672
