Once 7.23748
Ġupon 1.6756386
Ġa 0.008577092
Ġtime 0.030782701
, 0.5200385
Ġin 2.4577856
Ġa 0.6326335
Ġbustling 8.3082
Ġcity 1.6384854
Ġknown 3.9657328
Ġas 0.5136468
ĠMetro 6.618749
ville 3.3587675
, 0.099046394
Ġthere 0.78747725
Ġlived 0.82588375
Ġa 0.33899
Ġsuperhero 4.279291
Ġnamed 0.8899169
ĠGrace 11.706191
. 0.85083705
ĠGrace 1.3017573
, 3.457748
Ġa 1.8134843
. 3.0571327
k 0.005019224
. 6.6949986e-05
a 0.00082444504
. 0.14271651
Ġ" 3.2229095
The 1.0259278
ĠGuardian 3.7093
," 1.196462
Ġhad 2.4223795
Ġalways 4.190526
Ġbeen 1.399761
Ġthe 2.8687787
Ġepit 5.59391
ome 0.002348156
Ġof 0.0022679812
Ġstrength 3.2340157
Ġand 0.64781636
Ġjustice 3.8277223
. 0.5965288
ĠHowever 3.085821
, 0.025779977
Ġwhat 5.3520355
Ġmade 3.5149534
Ġher 0.6144354
Ġtruly 2.5345297
Ġunique 1.6030955
Ġwas 0.3149382
Ġher 0.77913266
ĠSuper 9.494301
S 6.615397
uit 1.0856295
Ġ( 4.642075
TM 4.138117
), 0.8829387
Ġwhich 0.8555232
Ġhad 2.7580888
Ġmiraculous 8.881108
Ġproperties 2.1764994
Ġthat 1.1459355
Ġwent 6.786172
Ġbeyond 0.6560894
Ġits 4.3715863
Ġdazzling 6.563568
Ġappearance 2.2635603
. 0.36917922
Ċ 1.8597969
Gr 11.53259
ace 0.006706367
's 0.9391794
ĠSuper 0.6298216
S 0.029881386
uit 7.255186e-05
Ġ( 1.2246293
TM 0.04251544
) 0.08806805
Ġpossessed 4.4727454
Ġincredible 4.5564713
Ġstrength 1.5177464
Ġand 1.3458302
Ġthe 2.8452086
Ġability 0.3306811
Ġto 0.0070086005
Ġwithstand 2.8903863
Ġextreme 3.0810103
Ġconditions 3.0394526
, 1.5040544
Ġbut 2.1359253
Ġwhat 2.5689256
Ġtruly 1.6753469
Ġamazed 5.430558
Ġher 2.2824225
Ġwas 0.7946248
Ġthe 1.1271623
Ġfact 1.8012425
Ġthat 0.024620555
Ġit 0.6516647
Ġwas 1.6969293
Ġcompletely 3.0117967
Ġmachine 5.348549
Ġwash 0.20534489
able 0.019511053
. 0.3479464
ĠJust 6.2148786
Ġlike 2.7768986
Ġany 1.7567
Ġother 0.5178299
Ġarticle 4.4609857
Ġof 0.0035132095
Ġclothing 0.011746247
, 0.14559323
Ġit 2.1597366
Ġrequired 3.4735782
Ġgentle 5.26427
Ġcare 0.39930403
Ġwith 4.3578715
Ġsimilar 7.4583597
Ġcolors 5.590508
, 1.4673816
Ġmild 4.8494425
Ġdeter 0.34152243
gent 0.16024101
, 0.28624055
Ġand 0.20239244
Ġa 1.3695514
Ġtumble 3.867237
Ġdry 0.33063477
Ġon 1.4647406
Ġlow 0.32634994
. 1.2407017
ĠThe 3.045734
Ġone 4.9111123
Ġcaveat 1.8258752
, 2.3851783
Ġhowever 0.51872677
, 0.010685188
Ġwas 0.039826345
Ġa 4.544285
Ġclear 6.7597027
Ġwarning 1.2249573
Ġlabel 2.7662673
Ġattached 3.624566
Ġto 0.11429747
Ġit 3.93788
: 1.8870164
ĠDO 2.8046243
ĠNOT 0.0032166913
Ġiron 5.3346324
. 0.831731
Ċ 0.4191405
As 3.7436264
Ġthe 2.6194313
Ġcity 3.225389
's 0.9210104
Ġdistress 12.199181
Ġcalls 1.5158248
Ġkept 3.5920312
Ġringing 4.0351977
Ġthrough 2.814155
Ġher 0.9252357
ĠSuper 2.9266622
S 1.5167791
uit 0.0044284356
Ġ( 0.9867188
TM 0.0033793524
)' 1.6681293
s 0.0017776933
Ġintegrated 6.1682487
Ġcommunication 1.7247757
Ġsystem 0.48712593
, 0.06494648
ĠGrace 0.17041422
Ġfound 2.9374764
Ġherself 0.18604489
Ġin 2.2301135
Ġa 0.9771271
Ġconstant 4.2776575
Ġbattle 1.9668435
Ġagainst 1.0826311
Ġthe 1.5472848
Ġforces 0.83307576
Ġof 0.011509321
Ġevil 0.15907562
. 0.33146223
ĠWhenever 5.9263153
Ġtrouble 3.5102997
Ġarose 1.1527711
, 0.1218576
Ġshe 0.56461143
Ġwould 1.0242311
Ġswiftly 4.080369
Ġdon 3.1279008
Ġher 0.09181001
ĠSuper 0.2531729
S 0.0065626036
uit 0.0005998747
Ġ( 0.00795038
TM 0.0015990542
) 0.47450376
Ġand 0.15942599
Ġrace 3.9999213
Ġoff 1.6992232
Ġto 0.31326005
Ġprotect 3.9386516
ĠMetro 2.8651187
ville 0.0024794242
's 1.1982043
Ġinnocent 2.4054353
Ġcitizens 0.5335713
. 0.41977137
Ċ 1.2998543
One 3.3859155
Ġday 0.79136837
, 0.06729498
Ġa 2.9923394
Ġparticularly 2.888965
Ġferocious 5.3580804
Ġvillain 1.690321
Ġknown 2.4146492
Ġas 0.10766962
ĠDr 2.5574455
. 0.008290972
ĠIron 6.1693087
claw 5.17263
Ġemerged 4.0292225
Ġfrom 0.7215007
Ġthe 0.46334267
Ġshadows 1.436496
. 1.3103416
ĠWith 3.0965443
Ġhis 0.85368806
Ġmechanical 4.588247
Ġex 6.004109
os 0.034502093
keleton 0.037462696
Ġand 0.644308
Ġintimidating 6.983052
Ġpresence 4.5162654
, 0.012921516
Ġhe 0.89870924
Ġbecame 5.2852554
Ġthe 2.0617166
Ġcity 2.2563581
's 0.004468908
Ġmost 1.1436702
Ġformidable 2.9238625
Ġadversary 2.52035
. 0.2311985
ĠGrace 3.1154013
Ġknew 2.3396184
Ġshe 1.4192305
Ġhad 0.5993596
Ġto 0.15961377
Ġconfront 3.3364048
Ġhim 0.5299822
, 0.9553661
Ġbut 0.33587953
Ġshe 1.2280312
Ġalso 1.6182188
Ġhad 3.054806
Ġto 0.7135703
Ġremember 5.404286
Ġthe 0.751952
ĠSuper 2.4053614
S 0.044144936
uit 0.001537505
Ġ( 0.4119286
TM 0.0015252677
)' 0.4454842
s 0.00052186626
Ġcare 3.6299407
Ġinstructions 0.11340119
. 0.25463858
Ċ 1.251113
Ign 8.714845
iting 8.255077
Ġher 0.2934958
Ġpowers 4.764689
, 0.44496083
ĠGrace 0.5237053
Ġengaged 4.8553495
Ġin 1.0055562
Ġan 2.1266994
Ġepic 0.27826172
Ġbattle 0.2555106
Ġwith 0.8747842
ĠDr 0.22007495
. 0.00040164858
ĠIron 0.00084860687
claw 0.001072399
. 0.37533906
ĠThe 1.984836
Ġvillain 2.5193663
's 1.524135
Ġmetallic 4.0395417
Ġclaws 1.1780682
Ġcame 4.9133697
Ġcrashing 2.3382034
Ġdown 0.049310252
, 2.3029742
Ġleaving 3.8513997
Ġdeep 1.5409201
Ġmarks 4.591662
Ġon 1.3602697
ĠGrace 1.0581294
's 0.0051158564
ĠSuper 0.2064446
S 0.0047685546
uit 3.9172486e-05
Ġ( 0.0058369613
TM 0.0013901846
). 0.2934696
ĠF 5.3511844
ocused 4.5013075
Ġon 0.37343526
Ġmaintaining 5.975327
Ġher 0.4091114
Ġstrength 2.7181835
, 0.7824034
Ġshe 1.2172018
Ġfought 3.4095523
Ġback 1.8544972
Ġwith 0.97942704
Ġunw 6.7669997
avering 0.0022381106
Ġdetermination 1.3936908
. 0.3525396
ĠWhile 5.1226144
Ġshe 1.5224798
Ġwas 1.3873086
Ġable 1.1911297
Ġto 0.0051923655
Ġsub 3.1253443
due 0.00024930926
ĠDr 0.76118445
. 0.00029020815
ĠIron 0.00092544575
claw 0.00063547964
, 0.32809737
Ġthe 1.2379566
Ġbattle 1.758533
Ġhad 1.2319137
Ġtaken 0.9496656
Ġits 0.34961972
Ġtoll 0.0068050805
Ġon 0.36710042
Ġher 0.30880752
Ġprecious 4.5133834
ĠSuper 0.10345603
S 0.0042518373
uit 6.814395e-05
Ġ( 0.0064173606
TM 0.0012232504
). 0.12596801
Ċ 0.5231716
Return 6.334629
ing 0.0019608408
Ġto 0.7240866
Ġher 0.6693159
Ġsecret 1.4635934
Ġhide 1.7131435
out 0.07953904
, 0.14044328
ĠGrace 0.18844306
Ġrealized 3.949334
Ġthe 1.9809988
Ġtime 3.7727187
Ġhad 0.047539517
Ġcome 0.05172197
Ġto 0.27301493
Ġface 2.7733693
Ġthe 0.84389687
Ġunavoidable 5.145358
: 1.7667197
Ġwashing 7.9394207
Ġher 0.27311054
ĠSuper 0.22005692
S 0.0029006535
uit 1.3900239e-05
Ġ( 0.009647945
TM 0.0014536356
). 0.15808399
ĠFollowing 4.9883995
Ġthe 0.059207983
Ġcare 1.5617775
Ġinstructions 0.095171645
Ġmeticulously 4.816585
, 0.031748626
Ġshe 0.4185439
Ġsorted 7.5727677
Ġher 1.0723364
Ġlaundry 1.162741
Ġand 1.682925
Ġgathered 4.899159
Ġthe 0.80056244
Ġappropriate 1.8865305
Ġcolors 5.8141885
. 0.9539255
ĠAs 2.9004927
Ġshe 0.33246273
Ġpoured 2.6499386
Ġthe 0.8166081
Ġmild 1.5710801
Ġdeter 0.01755594
gent 0.00014527855
Ġinto 0.41985705
Ġthe 0.06897535
Ġwashing 0.8997937
Ġmachine 0.004912118
, 0.114152886
Ġshe 0.45498848
Ġcouldn 2.387562
't 0.0016171437
Ġhelp 0.11831743
Ġbut 0.052734952
Ġfeel 2.0743027
Ġa 1.0130739
Ġsense 1.0072209
Ġof 0.0025269894
Ġnervous 4.811383
ness 0.46611768
. 0.38251805
ĠOnce 5.393222
Ġthe 0.5975142
Ġprocess 5.3637614
Ġbegan 1.3314784
, 0.028379757
Ġthere 4.041354
Ġwas 0.18038373
Ġno 0.0984685
Ġturning 0.22851719
Ġback 0.0002665992
. 0.13771923
Ċ 0.333024
As 2.0579102
Ġthe 0.71392184
Ġmachine 1.9971721
Ġhum 3.2268384
med 0.00036289258
Ġto 3.2084773
Ġlife 0.06603949
, 0.045897644
ĠGrace 0.1467127
Ġanx 3.2900693
iously 1.1398727e-05
Ġawaited 2.487169
Ġthe 0.23423749
Ġoutcome 2.191217
. 0.20228028
ĠMoments 5.366588
Ġlater 0.04979216
, 0.019083079
Ġthe 1.0299561
Ġmachine 2.0004237
Ġsignaled 3.643798
Ġthe 1.4683092
Ġend 0.95154864
Ġof 0.013818561
Ġthe 0.25827602
Ġcycle 0.39959997
. 0.85514164
ĠGrace 1.6547021
Ġhes 4.2338657
it 0.020133747
antly 2.141132e-05
Ġopened 0.41078123
Ġthe 0.038439643
Ġdoor 1.4290502
, 1.170136
Ġher 4.8730855
Ġheart 0.76639354
Ġracing 1.1895211
. 1.0231808
ĠTo 2.3501377
Ġher 0.0049989168
Ġaston 2.864443
ishment 0.00032932175
, 0.071457244
Ġher 1.0216614
ĠSuper 0.27927464
S 0.0034492086
uit 0.0003054706
Ġ( 0.014868486
TM 0.0014098212
) 0.009145786
Ġemerged 2.2606776
Ġfrom 1.9299515
Ġthe 0.03105387
Ġdepths 4.5376024
Ġof 0.17925994
Ġthe 0.010315529
Ġwashing 1.5397428
Ġmachine 0.0039506108
, 1.6263922
Ġshimmer 6.842043
ing 0.0017959059
Ġwith 2.4264274
Ġthe 2.4521525
Ġsame 0.47283185
Ġvibrant 3.661868
Ġcolors 0.9508929
Ġas 0.7108898
Ġbefore 0.4613966
. 0.33128804
ĠThe 2.399728
Ġmighty 6.6010046
Ġsuit 2.000272
Ġhad 0.95705956
Ġretained 4.0025373
Ġits 0.28485486
Ġstrength 1.0783446
Ġand 0.4013743
Ġpristine 6.5693717
Ġcondition 1.2863792
. 0.7373321
Ċ 0.60733163
With 3.191633
Ġa 1.1505624
Ġsigh 2.434098
Ġof 0.005448474
Ġrelief 0.0061693382
, 0.02866972
ĠGrace 0.035508074
Ġhung 2.7708704
Ġher 0.34745628
Ġbeloved 3.537661
ĠSuper 0.094710566
S 0.0024040197
uit 2.5464416e-05
Ġ( 0.0036644344
TM 0.0009713843
) 0.0066970065
Ġup 2.7069237
Ġto 0.077747814
Ġdry 0.0309622
. 0.3557282
ĠAs 1.9904468
Ġtime 5.51847
Ġpassed 0.5192881
, 0.07264152
Ġshe 0.7308605
Ġhoped 6.892581
Ġit 4.008871
Ġwould 0.20872578
Ġbe 1.8572843
Ġready 7.155664
Ġfor 0.598718
Ġher 1.4355046
Ġnext 0.14582118
Ġmission 2.5322936
. 0.3179378
ĠHowever 2.4132318
, 0.0029812367
Ġshe 2.1146097
Ġreceived 5.073873
Ġan 1.6598097
Ġurgent 0.78866345
Ġcall 1.0231019
Ġfrom 0.55136317
Ġthe 0.8896451
Ġcity 1.7476907
, 2.0858712
Ġsummoning 2.8423355
Ġher 0.022942858
Ġonce 3.6839137
Ġmore 1.1779646
. 0.7535579
Ċ 1.5399343
In 4.2697
Ġher 2.238318
Ġhaste 1.2529047
, 0.46470132
ĠGrace 0.34555387
Ġrealized 4.406639
Ġthat 1.8405718
Ġher 1.9022171
ĠSuper 0.22546901
S 0.0020590913
uit 0.00041578274
Ġ( 0.008484935
TM 0.00085779064
) 0.010073345
Ġwas 0.67450774
Ġnot 2.1563432
Ġyet 1.3024677
Ġfully 2.9195838
Ġdry 0.15494081
. 0.11197422
ĠRemember 5.897698
ing 0.00019869342
Ġthe 0.13198502
Ġwarning 1.0261475
Ġon 4.256051
Ġher 4.103174
Ġsuit 1.9492944
, 0.5482821
Ġwhich 7.3786736
Ġexplicitly 4.115378
Ġforb 2.2014189
ade 0.0040297247
Ġiron 0.49254668
ing 0.0021460592
, 0.07535317
Ġshe 0.2617055
Ġknew 2.5555053
Ġshe 0.5753896
Ġhad 0.30324164
Ġto 0.47267625
Ġfind 2.6817515
Ġanother 0.8387515
Ġsolution 1.3038521
. 0.13799658
ĠD 4.564957
etermined 0.599794
Ġto 0.36962244
Ġprotect 2.239988
Ġthe 0.8956118
Ġcity 0.89063
, 0.40367875
Ġshe 0.58421874
Ġwore 6.2444906
Ġthe 1.6228212
Ġslightly 4.258805
Ġdamp 0.08934909
ĠSuper 0.17294534
S 0.002297912
uit 0.000331888
Ġ( 0.0092741
TM 0.00086244626
) 0.34657064
Ġand 0.8305034
Ġembarked 4.5343237
Ġon 0.21552368
Ġher 0.22638088
Ġnext 1.7556174
Ġmission 0.7883387
. 0.07928963
Ċ 0.09947255
Eng 8.149056
aging 0.23359908
Ġin 0.62551636
Ġanother 1.3693427
Ġintense 3.5658793
Ġbattle 0.12582178
Ġagainst 2.3013742
Ġan 5.416487
Ġarmy 0.7890761
Ġof 0.0009789
Ġevil 2.377111
Ġhen 2.0576968
ch 4.6206733e-05
men 0.02686042
, 0.044742215
ĠGrace 0.10840695
's 2.5608585
ĠSuper 0.24699077
S 0.004809221
uit 0.00057762774
Ġ( 0.0074187648
TM 0.0008622069
) 0.0057117846
Ġproved 4.435055
Ġformidable 5.957237
, 1.8964901
Ġeven 3.8609817
Ġwithout 3.3354824
Ġiron 4.234521
ing 0.0040452825
. 0.036818538
ĠIts 4.8046956
Ġflexibility 5.2132926
Ġand 0.608088
Ġinnate 7.79512
Ġdurability 3.7766547
Ġallowed 1.444877
ĠGrace 1.6132352
Ġto 0.038386744
Ġcontinue 4.2759395
Ġher 0.92208236
Ġefforts 3.8889713
, 1.6450748
Ġund 3.6043668
eter 0.29614323
red 4.721163e-06
Ġby 1.159945
Ġexternal 7.0402474
Ġfactors 1.4880023
. 0.11231696
ĠWith 3.7141924
Ġeach 2.3914678
Ġpunch 2.7014601
Ġand 1.0491157
Ġkick 0.37467018
, 0.18310077
Ġshe 1.3242544
Ġovercame 5.7295017
Ġher 1.2248509
Ġadversaries 2.106935
, 1.3086666
Ġproving 4.19885
Ġthat 0.905534
Ġtrue 5.19989
Ġpower 2.8785203
Ġoriginated 8.649456
Ġnot 3.5148966
Ġfrom 0.2140675
Ġappearances 6.8224697
Ġbut 2.3188934
Ġfrom 0.15335174
Ġwithin 0.9231124
. 0.059831478
Ċ 0.1918084
As 1.7386467
Ġthe 0.71679753
Ġbattle 0.8471414
Ġsubs 3.952513
ided 0.00019380587
, 0.11270736
Ġthe 2.8233042
Ġcity 2.52301
Ġrejo 3.405798
iced 3.5357807e-05
Ġin 1.9500388
Ġtheir 2.3056667
Ġhero 2.8890626
's 0.047454264
Ġvictory 1.1026642
. 0.10996671
ĠGrace 1.4857979
's 2.3110456
ĠSuper 1.1237239
S 0.007264514
uit 0.00068456633
Ġ( 0.0058896607
TM 0.0011103477
) 0.07412126
Ġhad 0.6884218
Ġonce 2.7409837
Ġagain 0.029316003
Ġtri 4.2022886
ump 5.693833e-05
hed 2.4543265e-06
, 1.9459599
Ġdemonstrating 4.8548822
Ġits 1.7673011
Ġremarkable 3.4284499
Ġqualities 3.139573
Ġthrough 3.826387
Ġthe 2.3634639
Ġwear 4.470809
Ġand 0.046953697
Ġtear 0.045489356
Ġof 0.1426121
Ġrelentless 6.211929
Ġfights 5.5199423
. 0.20412384
ĠIt 3.480396
Ġwas 1.0454854
Ġa 2.028152
Ġtestament 1.7272867
Ġto 0.05369619
Ġthe 0.9114928
Ġinnovation 8.627585
Ġand 0.75100505
Ġthought 6.831583
Ġbehind 3.1089325
Ġthe 0.8973896
Ġdesign 2.2241738
. 1.3386599
Ċ 0.7363723
Gr 1.6872492
ace 0.002491196
Ġreturned 2.6673734
Ġhome 1.1714222
, 0.77175224
Ġher 3.0946736
ĠSuper 0.8486285
S 0.0032851018
uit 0.00014146294
Ġ( 0.0069723474
TM 0.0010965646
) 0.003859418
Ġclinging 5.9917426
Ġto 0.5394961
Ġher 0.029565224
Ġdamp 5.802349
Ġbody 0.5090212
Ġbut 7.808565
Ġalso 5.227942
Ġembod 6.3918495
ying 9.966347e-06
Ġthe 1.104484
Ġstrength 2.5181272
Ġand 0.8196192
Ġresilience 2.1106951
Ġshe 1.0550312
Ġheld 5.426868
Ġwithin 0.38724244
. 0.17830738
ĠUn 6.6600986
f 3.5611036
azed 0.008573244
Ġby 0.24719879
Ġminor 6.0894732
Ġimperfect 2.4686115
ions 0.00082301453
, 0.15127222
Ġshe 0.40304947
Ġgladly 7.5219693
Ġawaited 5.1366534
Ġthe 0.7536428
Ġnext 0.4142027
Ġadventure 3.3037536
. 0.61003685
ĠHer 4.777175
ĠSuper 0.67463523
S 0.005895116
uit 0.0012708758
Ġ( 0.013089206
TM 0.0018757439
) 0.06925504
Ġmay 2.68435
Ġnot 0.72864276
Ġhave 0.12978278
Ġbeen 0.54472524
Ġiron 1.1706309
ed 0.10256583
Ġto 4.6517878
Ġperfection 0.14102092
, 0.06315414
Ġbut 0.02848321
Ġit 0.43239775
Ġhad 1.8427898
Ġshown 4.3750935
Ġher 1.4347403
Ġthat 0.76527065
Ġtrue 2.2729676
Ġpower 1.9024639
Ġcame 2.4340405
Ġnot 2.0478308
Ġfrom 0.03490789
Ġthe 2.1219754
Ġimm 8.405595
ac 0.0007018657
ulate 0.027555404
Ġexterior 3.9657602
Ġbut 0.7084496
Ġfrom 0.15671681
Ġthe 0.65528154
Ġheart 2.1909285
Ġof 1.8147211
Ġa 0.7392728
Ġhero 1.4498507
. 0.10258565
Ċ 0.6501183
From 5.7001696
Ġthat 1.2743962
Ġday 0.10125581
Ġforward 0.7250351
, 0.005594777
ĠGrace 0.21283276
Ġembraced 5.4089823
Ġher 0.5047352
ĠSuper 0.73907155
S 0.007144142
uit 9.699527e-05
Ġ( 0.05902549
TM 0.0024649044
)' 1.010242
s 0.0004197157
Ġuniqueness 4.6587915
Ġwith 3.0093348
Ġopen 2.375187
Ġarms 0.012255204
, 1.8321426
Ġrecognizing 4.1927123
Ġthat 0.87092423
Ġher 3.1323762
Ġresilience 7.234158
Ġand 1.2427193
Ġunw 5.521699
avering 0.00086495065
Ġdetermination 1.3916684
Ġmade 2.1419437
Ġher 0.015176767
Ġa 1.004495
Ġtrue 0.65299857
Ġsuperhero 1.0615174
, 3.4106457
Ġregardless 2.1759644
Ġof 0.005359903
Ġhow 3.1385446
Ġflaw 9.072089
lessly 0.0019281176
Ġher 0.5423881
Ġsuit 0.88407606
Ġwas 0.7730687
Ġpresented 5.82663
. 0.10557386
ĠThe 4.29256
ĠGuardian 5.2671733
, 3.3418536
Ġwith 2.9108212
Ġher 0.41866162
Ġmachine 3.985833
Ġwash 0.181407
able 0.0013986006
ĠSuper 0.1540267
S 0.01038214
uit 0.0010099844
Ġ( 0.018853338
TM 0.003958929
), 0.106652655
Ġcontinued 2.91776
Ġto 0.260457
Ġprotect 0.82976246
ĠMetro 0.813057
ville 0.0013190989
, 1.8328346
Ġinspiring 3.182217
Ġothers 1.519799
Ġto 0.25597158
Ġfind 2.8991697
Ġstrength 2.5314822
Ġin 1.6160667
Ġtheir 0.39753035
Ġown 0.9967168
Ġvulnerabilities 4.245362
Ġand 1.8819866
Ġto 1.8267325
Ġunleash 7.1652684
Ġtheir 0.19002472
Ġhidden 4.057923
Ġpower 3.7310936
Ġ- 8.105603
Ġjust 2.0830507
Ġlike 0.4316674
Ġshe 2.769918
Ġdid 0.6683302
. 0.093660146
