Rel 8.494814
iability 3.9577005
Ġis 2.9232411
Ġthe 1.8621254
Ġextent 7.7418118
Ġto 0.20054935
Ġwhich 0.0052501257
Ġa 1.1211665
Ġor 11.641123
Ġmeasurement 9.544516
Ġtechnique 5.9388204
Ġresearch 13.9006405
Ġconsistently 6.59265
Ġthe 8.793966
Ġyields 9.783694
Ġsame 8.308719
Ġwhen 6.412468
Ġresults 6.9718046
Ġrepeated 7.9247303
. 2.0262644
ĠIt 3.4254944
Ġis 0.58066833
Ġcrucial 5.971387
Ġresearch 6.6563797
Ġin 3.2970977
Ġas 7.2687187
Ġit 3.79455
Ġallows 4.7816834
Ġfor 2.1138153
Ġthe 1.7183999
Ġreplication 6.6331596
Ġof 0.3264304
Ġstudies 3.614122
Ġand 2.2756672
Ġthe 2.1045287
Ġconfidence 6.2413454
Ġin 1.6393247
Ġthe 0.81712574
Ġstability 8.283048
Ġof 0.1706169
Ġfindings 2.3454237
. 0.42223957
ĠCons 7.3046103
ist 0.43329817
ency 0.38749218
Ġof 2.0621066
Ġdata 3.4947314
Ġis 1.8047562
Ġa 2.224611
Ġkey 2.4237568
Ġfactor 1.8336184
Ġin 0.82380944
Ġachieving 5.4836907
ĠFor 12.093728
Ġreliability 5.4470286
. 3.2319167
Ġexample 10.417433
, 0.584141
Ġif 4.031114
Ġa 1.330041
Ġresearcher 2.117567
Ġis 2.582564
Ġconducting 3.4773307
Ġa 0.5408261
Ġsurvey 3.3912916
Ġstress 12.978912
Ġmeasuring 6.8765135
Ġlevels 6.409285
Ġa 5.875781
Ġpopulation 5.911154
, 1.6186535
Ġin 5.680433
Ġit 5.0480046
Ġis 1.4374125
Ġimportant 2.044577
Ġthat 1.1438528
Ġthe 0.5143444
Ġquestions 6.0863047
Ġare 1.3506137
Ġphr 5.3776894
ased 0.019997166
Ġconsistently 4.6589856
Ġand 1.9136328
Ġthe 1.7170026
Ġdata 2.3575242
Ġcollection 4.042144
Ġprocess 3.0708246
Ġremains 6.6463513
Ġthe 2.6381032
Ġsame 0.044117846
. 0.5649958
ĠInc 9.192896
ons 0.2981296
istent 0.75070125
Ġquestion 3.357686
Ġformatting 7.667577
Ġor 2.91239
Ġvariations 8.039714
Ġin 0.20890322
Ġdata 1.9741132
Ġcollection 0.3129074
Ġmethods 1.8901377
Ġcould 3.4478145
Ġlead 1.4665871
Ġto 0.10911002
Ġunreliable 3.3577082
Ġresults 0.84512043
, 2.6954725
Ġweakening 9.736591
Ġvalidity 6.2821627
Ġthe 7.087247
Ġof 6.619808
Ġthe 0.79856336
Ġstudy 1.9524425
. 0.37237227
Ċ 1.2487826
Cons 16.82483
ist 0.32690704
ency 0.026177092
Ġof 0.65795946
Ġresearch 2.8395314
Ġtechniques 4.7663603
Ġis 1.4854523
Ġalso 1.8669211
Ġessential 3.2597408
Ġestablishing 11.207929
Ġin 4.8650165
Ġreliability 7.439269
. 1.6084646
ĠResearchers 4.7889776
Ġmust 2.4329996
Ġuse 3.3652172
Ġprocedures 5.234002
Ġstandardized 8.288979
Ġto 2.2612338
Ġensure 1.7814655
Ġconsistency 2.0078726
Ġacross 2.620995
ĠFor 12.564158
Ġstudies 7.2403193
. 1.321204
Ġinstance 9.338486
, 0.28914884
Ġin 3.4470093
Ġan 4.164801
Ġexperiment 2.1924489
Ġtesting 6.6151237
Ġthe 1.6308215
Ġof 7.930477
Ġeffect 7.218498
Ġa 4.170236
Ġnew 3.9709818
Ġdrug 1.8017303
Ġon 0.75683314
Ġblood 3.1452703
Ġit 7.845557
Ġpressure 12.995205
, 1.745314
Ġis 7.27382
Ġcrucial 5.144544
Ġto 1.2788794
Ġfollow 5.5573387
Ġa 1.9703906
Ġstandardized 2.9908152
Ġprotocol 1.4405388
, 2.8356953
Ġthe 4.1215067
Ġensuring 10.912004
Ġadministration 10.496463
Ġof 0.5657855
Ġdrug 5.3195014
, 3.1332705
Ġmeasurement 6.1913333
Ġthe 4.4259677
Ġof 3.277717
Ġblood 2.3268032
Ġpressure 0.063793145
, 1.7724472
Ġand 0.7602195
Ġanalysis 5.129298
Ġdata 5.4385715
Ġprocedures 8.155086
Ġconsistent 4.37652
. 1.9502319
Ġare 7.077306
ĠThis 8.540314
Ġconsistency 2.2348347
Ġallows 4.684542
Ġfor 1.0303771
Ġthe 1.0889149
Ġcomparison 5.53084
Ġof 0.26167846
Ġfindings 2.5800579
Ġdifferent 8.492537
Ġacross 5.736801
Ġstudies 1.048857
, 1.7186625
Ġstrengthening 7.760243
Ġreliability 2.6373057
Ġthe 3.490885
Ġof 1.4639877
Ġthe 0.9397611
Ġresearch 2.2193093
. 0.8506864
Ċ 2.487161
Val 9.64366
idity 0.094625756
, 4.0303903
Ġon 2.495618
Ġthe 0.037229914
Ġother 0.044487793
Ġhand 0.14156073
, 0.037481755
Ġrefers 2.9106457
Ġto 0.080754824
Ġthe 0.4902392
Ġaccuracy 3.4972684
Ġand 2.1356888
Ġfactual 9.429088
ness 2.754614
Ġof 0.120539
Ġresearch 1.5537261
Ġdata 4.899208
Ġand 3.0922627
Ġinstruments 7.8033934
. 1.0712667
ĠIt 2.334028
Ġis 0.45429486
Ġthe 2.6856608
Ġextent 3.127227
Ġto 0.16191894
Ġwhich 0.08014204
Ġa 1.7292222
Ġstudy 2.3711185
Ġmeasures 4.148771
Ġwhat 3.1539779
Ġit 0.65225047
Ġclaims 1.1019051
Ġto 0.2804287
Ġmeasure 0.6385524
. 0.94050246
ĠTo 4.1113453
Ġachieve 2.4770954
Ġvalidity 0.98302746
, 0.45314285
Ġresearchers 1.1897453
Ġensure 5.903096
Ġmust 9.011187
Ġthat 4.733297
Ġtheir 2.6266131
Ġmeasurements 4.093873
Ġaccurately 4.098096
Ġrepresent 2.1039038
Ġthe 0.7894068
Ġvariables 4.39233
Ġof 2.7871773
Ġinterest 0.17327127
. 1.0270987
ĠFor 2.1333025
Ġexample 0.2946704
, 0.023992375
Ġif 1.8329296
Ġa 0.5521133
Ġstudy 2.0865583
Ġaims 4.736829
Ġto 0.0750885
Ġmeasure 1.3678231
Ġjob 8.366704
Ġsatisfaction 0.97120756
, 0.5376588
Ġit 1.1327479
Ġis 0.9927618
Ġimperative 4.161984
Ġthat 0.54744506
Ġmeasurement 5.0645537
Ġthe 3.7063432
Ġused 8.268651
Ġtool 9.832507
Ġcaptures 8.081869
Ġall 3.35165
Ġrelevant 1.6588411
Ġaspects 3.5243745
Ġof 0.20471889
Ġjob 1.6434076
Ġaccurately 13.159675
. 0.7881603
Ġsatisfaction 12.608045
ĠUsing 10.34919
Ġa 1.4852993
Ġvalid 3.9189363
Ġinstrument 1.0504596
Ġensures 5.030652
Ġthat 0.54878724
Ġfindings 3.3754773
Ġthe 4.4450693
Ġare 2.7095456
Ġa 5.3181534
Ġtrue 3.2594066
Ġrepresentation 1.6204693
Ġof 0.040974475
Ġthe 0.47990394
Ġconstruct 5.3624153
Ġbeing 2.76548
Ġstudied 2.4907198
. 0.33991355
Ċ 3.2030933
To 3.974528
Ġestablish 3.796299
Ġvalidity 0.27690685
, 0.30699098
Ġresearchers 0.71947116
Ġmay 5.175018
Ġuse 1.5961275
Ġestablished 5.7930613
Ġmeasurement 3.6993678
Ġtools 2.478509
Ġthat 3.370752
Ġhave 2.3810525
Ġbeen 0.44168264
Ġpreviously 3.916194
Ġvalidated 1.9185047
. 1.119507
ĠFor 1.0182765
Ġinstance 3.3525953
, 0.013737362
Ġif 2.1109366
Ġa 0.3741856
Ġresearcher 1.2123967
Ġis 0.8080513
Ġinterested 3.004009
Ġin 0.061118588
Ġmeasuring 1.3976059
Ġdepression 4.814189
, 0.5441099
Ġmight 7.821378
Ġthey 4.029662
Ġa 6.920376
Ġuse 4.791341
Ġwidely 9.176006
Ġused 1.5433012
Ġvalidated 5.0490427
Ġand 5.724237
Ġinstrument 6.2793245
Ġsuch 2.7393532
Ġas 0.031811327
Ġthe 0.07025962
ĠBeck 1.0076416
ĠDepression 0.14697282
ĠInventory 0.05350068
. 2.4073484
ĠBy 6.0778065
Ġemploying 5.2493844
Ġsuch 3.3821201
Ġinstruments 2.1440835
, 0.4187028
Ġresearchers 0.8667938
Ġcan 0.6944024
Ġensure 0.86421263
Ġthat 0.46818888
Ġtheir 1.2706659
Ġdata 3.1341221
Ġcollection 2.4830973
Ġtools 5.2631025
Ġmeasure 3.1220205
Ġaccurately 3.0619564
Ġthe 0.8338914
Ġvariables 4.985628
Ġinterest 9.532531
, 2.663231
Ġof 7.4548135
Ġleading 12.025997
Ġto 0.19915716
Ġmore 2.3549414
Ġvalid 2.5044098
Ġresults 1.9657497
. 0.2806897
Ċ 1.2259159
Furthermore 6.3381424
, 0.011677441
Ġthe 3.3185325
Ġevaluating 10.054946
Ġaccuracy 4.716527
Ġof 0.25989804
Ġdata 2.8531303
Ġresearch 6.8470664
Ġis 2.5167139
Ġcrucial 1.6229684
Ġfor 2.2185237
Ġestablishing 1.7602081
Ġvalidity 0.8015205
. 0.38296378
ĠResearchers 3.0192049
Ġmust 1.094488
Ġcritically 8.06317
Ġassess 2.3678858
Ġdata 2.752809
Ġtheir 7.3291025
Ġcollection 3.5580258
Ġtechniques 2.9870453
, 1.955012
Ġdata 6.244804
Ġanalysis 2.8244967
Ġprocedures 2.6448436
, 0.21852596
Ġand 0.3694419
Ġensure 7.251303
Ġthat 0.76496917
Ġany 4.57331
Ġbiases 4.151497
Ġare 2.4134905
Ġaddressed 4.6588206
. 0.8058526
ĠFor 1.560968
Ġexample 0.47578582
, 0.0066901566
Ġresearchers 3.1786213
Ġmight 1.798256
Ġperform 4.920172
Ġinter 9.496799
- 0.7212019
r 0.5246676
ater 0.0007679368
Ġreliability 0.2851027
Ġchecks 2.7888248
Ġensure 8.324397
Ġto 6.3838997
Ġconsistent 9.1039095
Ġinterpretation 5.640314
Ġof 0.23309454
Ġqualitative 8.208047
Ġdata 0.6515369
, 1.6244102
Ġuse 6.747483
Ġor 7.1474676
Ġstatistical 5.6225014
Ġtests 1.7204572
Ġto 0.7680291
Ġvalidate 4.2885494
Ġtheir 2.525926
Ġmeasurements 5.512114
. 1.2468996
Ġquantitative 12.913076
ĠThese 10.508084
Ġmeasures 3.1122353
Ġincrease 7.847948
Ġthe 0.43613955
Ġconfidence 3.2236514
Ġin 0.7908032
Ġthe 0.69318867
Ġvalidity 0.8551991
Ġof 0.07294302
Ġtheir 2.8774772
Ġfindings 0.90785927
. 0.64665055
Ċ 1.3862563
In 2.7984176
Ġconclusion 3.1416945
, 0.042993374
Ġreliability 1.8936778
Ġand 1.8979111
Ġvalidity 0.0769086
Ġare 0.34601563
Ġvital 3.7107348
Ġin 2.1764684
Ġparticularly 11.099505
Ġresearch 2.3019655
, 2.276235
Ġwhen 5.3531733
Ġmeasuring 3.8062897
Ġthe 1.4690373
Ġrelationship 5.0964966
Ġbetween 0.1815489
Ġindependent 8.564703
Ġand 2.918887
Ġdependent 0.24870941
ĠCons 14.494797
ist 0.37787881
ency 0.05988084
Ġvariables 6.4894156
. 0.7006859
Ġof 8.395028
Ġand 5.9875393
Ġdata 6.5543656
Ġresearch 5.869314
Ġtechniques 2.381727
Ġensures 9.98374
Ġreliability 3.7697926
, 2.1300218
Ġallowing 6.08235
Ġfor 0.6275002
Ġand 5.0174665
Ġreplication 6.6475606
Ġfindings 6.203463
. 0.62363833
Ġstable 10.940187
ĠAcc 11.599346
urate 0.32946703
Ġand 1.9402307
Ġfactual 5.2542534
Ġdata 1.4168144
, 3.283566
Ġresearch 4.099786
Ġas 7.1392574
Ġwell 2.3131106
Ġas 0.11963615
Ġthe 2.8635457
Ġuse 4.367688
Ġof 0.15267484
Ġvalidated 3.2579165
Ġinstruments 0.8803848
, 1.7391771
Ġcontribute 7.118623
Ġestablishing 11.461907
Ġto 3.8818417
Ġvalidity 2.60197
. 0.8367026
ĠResearchers 6.557824
Ġmust 1.9480613
Ġbe 2.1803775
Ġdiligent 3.9077582
Ġin 0.37848195
Ġtheir 2.385118
Ġapproach 5.3099093
Ġensure 7.715893
Ġto 2.5004811
Ġthat 5.3539767
Ġtheir 1.6958425
Ġstudies 3.64773
Ġhave 3.6830816
Ġboth 5.4782996
Ġreliability 1.4987592
Ġand 0.13850623
Ġvalidity 0.13202737
Ġin 3.421644
Ġorder 2.0641382
Ġto 0.21156204
Ġproduce 5.072569
Ġrobust 5.4189796
Ġand 1.8526156
Ġcredible 4.052824
Ġresults 1.5736299
. 0.1287706
