The 2.598347
Ġshort 7.685396
Ġstory 2.559812
Ġ" 4.551388
Inter 7.89503
pre 3.362315
ter 1.0721314
Ġof 1.8752
ĠMal 2.63165
adies 0.4990937
" 0.29403645
Ġby 1.7699223
ĠJ 4.4665747
h 4.1567955
ump 0.08104486
a 0.015230817
ĠLah 0.022275614
iri 0.013853529
Ġexplores 4.7494416
Ġthe 0.49520937
Ġlife 5.008444
Ġof 0.4274989
ĠMr 8.881253
. 0.08280099
ĠDas 7.099057
, 1.8407153
Ġa 0.53418326
Ġcharacter 6.6127405
Ġwhose 3.1503882
Ġevolution 10.030408
Ġreveals 6.771622
Ġthe 1.1604874
Ġconsequences 6.5786915
Ġof 0.05975115
Ġhis 3.5140817
Ġinability 4.81521
Ġto 0.024404053
Ġemotionally 8.57623
Ġconnect 1.2714809
Ġwith 0.41022515
Ġhis 1.2185278
Ġwife 2.1182117
Ġand 1.8418486
Ġchildren 1.8339884
. 0.23827507
ĠAt 5.584231
Ġthe 0.7936335
Ġcommencement 9.052538
Ġof 0.08072997
Ġthe 0.6118558
Ġstory 1.3596748
, 0.1514339
ĠMr 0.7403665
. 0.0034120353
ĠDas 0.035191827
Ġis 0.94316816
Ġportrayed 6.3913865
Ġas 0.17903104
Ġa 0.55834347
Ġsympathetic 7.0742655
Ġand 1.8958079
Ġbenevolent 5.6822395
Ġfigure 2.1273072
, 1.1957422
Ġbut 1.4333689
Ġas 1.5961294
Ġit 3.9653444
Ġprogresses 0.4932349
, 0.6856907
Ġhis 1.6471833
Ġdisdain 9.178795
Ġbecomes 3.403551
Ġevident 2.310176
. 0.83311146
ĠThis 3.134584
Ġtransformation 6.29616
Ġdemonstrates 5.6435776
Ġthe 1.0309243
Ġimportance 3.579379
Ġof 0.10237266
Ġintro 6.241631
spection 0.34970328
Ġand 1.2751287
Ġacknowledge 11.55701
Ġreality 6.539864
Ġin 2.2933521
Ġorder 2.712441
Ġto 0.05295621
Ġmaintain 4.9571133
Ġmeaningful 6.18048
Ġrelationships 0.41410077
. 0.44249037
Ċ 1.079407
Initially 16.396774
, 0.33991703
ĠMr 0.7491419
. 0.0028461257
ĠDas 0.02635174
Ġappears 2.9414659
Ġas 1.9822855
Ġa 0.44231504
Ġcaring 3.229342
Ġfather 2.649169
Ġwho 1.5945462
Ġsympath 7.235674
izes 0.04457433
Ġwith 0.14100926
Ġhis 0.2216767
Ġchildren 2.0007892
's 2.090526
Ġneeds 2.6073968
. 0.9891891
ĠHe 2.0682797
Ġindul 7.6801696
ges 0.017877966
Ġtheir 1.9054532
Ġwishes 4.855194
, 1.9093006
Ġsuch 6.111994
Ġas 0.04712894
Ġbuying 3.507327
Ġthem 1.1787864
Ġch 5.392562
ocol 0.030089702
ates 0.0038320255
Ġand 1.6688147
Ġsouven 8.511023
irs 0.02586117
Ġduring 5.7108345
Ġtheir 1.3434939
Ġvisit 3.804104
Ġto 0.13963786
ĠIndia 2.6674857
. 0.46014512
ĠHowever 1.2916507
, 0.014249535
Ġbeneath 8.195586
Ġthis 1.6575742
Ġfa 3.3186016
ç 0.0040385067
ade 0.0015216453
Ġof 2.0094078
Ġbene 2.2797246
vol 0.00041363045
ence 0.0018235737
, 0.49788922
Ġthere 2.8677132
Ġis 0.2810148
Ġa 0.414898
Ġlack 4.9741774
Ġof 0.016286435
Ġemotional 2.7443185
Ġconnection 0.7786689
. 1.0784715
ĠHe 2.450924
Ġis 1.5781641
Ġunable 2.453113
Ġto 0.010307603
Ġaddress 6.680127
Ġthe 1.2172716
Ġcore 5.526249
Ġissues 1.0712975
Ġin 2.9919379
Ġhis 0.50181645
Ġmarriage 2.614904
Ġand 1.1551743
Ġfamily 2.7525759
, 1.2529442
Ġwhich 2.0615675
Ġultimately 3.142329
Ġs 8.88535
ours 0.74265593
Ġhis 0.78748924
Ġrelationships 2.3304996
. 1.8752975
Ċ 1.745309
Mr 5.2861137
. 0.0041806176
ĠDas 0.029260674
's 1.8307074
Ġinability 2.5777035
Ġto 0.0104221655
Ġintro 8.920786
spect 0.04304292
Ġand 1.9323943
Ġacknowledge 2.7492168
Ġreality 0.81237614
Ġis 2.0456767
Ġpalpable 7.630225
Ġin 1.1358536
Ġhis 2.0317245
Ġinteractions 2.7007196
Ġwith 0.029044159
Ġhis 0.4658018
Ġwife 1.1750369
. 2.4939303
ĠMrs 5.051447
. 0.0041351533
ĠDas 0.14715093
Ġyear 8.738955
ns 0.045441102
Ġfor 0.26813254
Ġemotional 4.139177
Ġintimacy 1.7122791
, 1.1799624
Ġbut 0.6490538
Ġher 2.1498933
Ġhusband 0.879924
Ġis 1.4496115
Ġoblivious 4.8739805
Ġto 0.2002636
Ġher 0.6438833
Ġneeds 1.6343621
. 0.5055828
ĠHe 2.0815563
Ġremains 4.6700907
Ġdetached 2.795351
, 1.6582716
Ġfocusing 5.757085
Ġon 0.7274136
Ġtrivial 6.5362153
Ġpursuits 5.5327315
Ġand 1.7994858
Ġrefuse 9.682691
Ġto 0.087141395
Ġacknowledge 1.4718964
Ġthe 1.4811769
Ġemotional 3.1061783
Ġstrains 8.300373
Ġin 1.820386
Ġtheir 1.0275424
Ġrelationship 1.1285522
. 0.057294324
ĠThis 2.5714147
Ġlack 2.4017332
Ġof 0.0054533626
Ġintro 3.2317758
spection 0.074541196
Ġleads 3.299774
Ġto 0.23380625
Ġtheir 3.2546744
Ġmutual 4.8497114
Ġisolation 3.4346955
, 1.3148566
Ġwhich 1.3089812
Ġculmin 2.5860274
ates 0.044544343
Ġin 0.1434483
ĠMrs 3.7313662
. 0.0011702254
ĠDas 0.028400952
's 0.57925904
Ġdecision 4.5595546
Ġto 0.04022391
Ġhave 5.7498074
Ġan 0.5237026
Ġaffair 1.3093829
. 1.1648688
Ċ 1.7330388
As 3.2345855
Ġthe 1.2416811
Ġstory 0.56363004
Ġunfolds 2.0758371
, 0.0348693
ĠMr 1.1642761
. 0.0010481736
ĠDas 0.021790728
's 1.2098345
Ġdisdain 7.4659863
Ġbecomes 2.649292
Ġincreasingly 2.8726492
Ġapparent 1.0155408
. 0.7048002
ĠWhen 4.258079
ĠMrs 3.136365
. 0.001633286
ĠDas 0.023919165
Ġconf 5.500514
ides 0.04427057
Ġin 0.18790938
Ġhim 0.4436233
Ġabout 0.7406706
Ġher 0.2618005
Ġaffair 1.3035161
, 0.20233667
Ġhe 0.38950202
Ġdismiss 3.7477267
es 0.011014813
Ġher 0.3971138
Ġfeelings 4.539498
, 2.451908
Ġshowcasing 10.352224
Ġhis 0.73643607
Ġoriginate 17.757399
Ġindifference 3.648037
Ġtowards 1.0031383
Ġtheir 3.3074656
Ġrelationship 0.5620758
. 0.087089926
ĠThis 2.3227334
Ġdisdain 5.3224154
Ġis 1.4978154
Ġbesides 13.562729
Ġevident 6.336398
Ġin 0.4494732
Ġhis 0.71352077
Ġtreatment 3.6996965
Ġof 0.075017385
Ġtheir 3.2829268
Ġchildren 0.61625034
. 0.967369
ĠHe 1.4955779
Ġpays 7.240773
Ġa 4.8284054
Ġtaxi 12.089777
Ġdriver 0.3533998
Ġto 0.7938323
Ġpretend 7.383874
Ġto 0.21732904
Ġconstitute 13.50174
Ġtheir 1.5587312
Ġfather 4.1104174
Ġand 2.1940744
Ġrefuses 4.2737174
Ġto 0.040184528
Ġinteract 4.494316
Ġwith 0.047543023
Ġthem 0.65796375
Ġduring 4.0529222
Ġtheir 0.7382265
Ġouting 5.722768
. 0.66374713
ĠThis 2.656314
Ġcall 8.095036
ous 0.016211143
Ġbehavior 1.6917667
Ġillustrates 5.976646
Ġhis 1.4779971
Ġemotional 6.2955637
Ġdetachment 1.2312832
Ġand 1.2921364
Ġhighlights 9.184861
Ġthe 0.7312125
Ġconsequences 4.571172
Ġof 0.07556732
Ġhis 0.73581725
Ġinability 1.0818346
Ġto 0.0043668635
Ġconnect 0.8388165
Ġwith 0.61598134
Ġhis 0.36840788
Ġfamily 0.9172414
. 0.31197935
Ċ 0.64078575
The 1.8362486
Ġevolution 7.782671
Ġof 0.06365288
ĠMr 0.31470457
. 0.0009839815
ĠDas 0.015201344
Ġas 2.732535
Ġa 0.622048
Ġcharacter 0.23247021
Ġillustrates 3.288599
Ġthe 0.43113044
Ġdire 8.743505
Ġconsequences 0.36303967
Ġof 0.13562499
Ġavoiding 6.242214
Ġintro 2.8217125
spection 0.09798815
Ġand 0.7150814
Ġdenying 6.069274
Ġreality 0.24864973
. 0.66591716
ĠHis 2.5338264
Ġrefusal 4.495739
Ġto 0.042226847
Ġacknowledge 0.9209727
Ġhis 1.4536672
Ġwife 2.1596
's 0.28183812
Ġunh 6.2174335
appiness 0.00029208304
Ġand 1.8807127
Ġhis 1.5355725
Ġown 5.186329
Ġemotional 3.5265195
Ġdetachment 4.8082294
Ġultimately 5.2176743
Ġlead 1.2862453
Ġto 0.10196325
Ġthe 2.0156035
Ġbreakdown 1.9092218
Ġof 0.03880114
Ġtheir 0.75553674
Ġmarriage 0.8197415
Ġand 1.2354827
Ġthe 1.4036324
Ġcrumbling 7.449301
Ġof 0.007994122
Ġtheir 0.25100946
Ġfamily 0.9503492
Ġunit 2.5197258
. 0.03422992
ĠThis 2.4793777
Ġhighlights 5.171355
Ġthe 0.14184897
Ġsignificance 4.114787
Ġof 0.03657365
Ġself 4.437796
- 0.10571724
ref 1.4429338
lection 0.007976503
Ġand 0.66978174
Ġfacing 7.275915
Ġthe 2.6578074
Ġtruth 2.390092
. 1.5337477
Ċ 1.0500184
By 5.3520927
Ġintro 8.007477
spect 0.8048874
ing 0.008993288
, 0.9967022
Ġindividuals 5.6216
Ġcan 0.7614392
Ġidentify 3.4631655
Ġtheir 1.2311478
Ġshortcomings 4.417511
Ġand 0.38951614
Ġconfront 7.310341
Ġtheir 1.1604686
Ġemotional 3.6972704
Ġlimitations 4.94311
. 0.30050057
ĠIntro 5.204692
spection 0.11003386
Ġallow 9.168469
Ġone 2.9657116
Ġto 0.009985917
Ġbe 4.5516872
Ġmore 1.6385847
Ġatt 4.5458536
uned 0.0014941533
Ġto 0.0641597
Ġthe 1.2698771
Ġneeds 3.140814
Ġand 1.4936125
Ġemotions 2.616548
Ġof 0.035073046
Ġothers 0.48781815
, 1.2260711
Ġfostering 6.854088
Ġemotional 4.3575964
Ġconnection 2.0762506
Ġand 0.70455104
Ġpreventing 7.212443
Ġdisillusion 5.732847
ment 0.032414965
Ġin 3.797543
Ġrelationships 0.75217223
. 0.06392836
ĠLikewise 7.888809
, 0.010909515
Ġacknowledging 3.9435744
Ġreality 0.3936495
Ġis 2.783525
Ġessential 2.2905822
Ġfor 1.2022437
Ġmaintaining 2.2478714
Ġhealthy 2.4615242
Ġrelationships 0.18841356
. 0.52981067
ĠDen 8.019074
ying 0.5940328
Ġor 4.7098174
Ġdown 5.870231
playing 0.026384942
Ġissues 6.177485
Ġonly 5.398132
Ġdeep 6.475783
ens 0.00348532
Ġthe 0.967436
Ġrift 2.8536654
Ġbetween 0.7349315
Ġindividuals 2.299048
Ġand 0.941978
Ġinhibits 6.131675
Ġgenuine 4.5761294
Ġconnections 2.4458213
. 0.33641222
Ċ 1.0270684
In 3.044596
bytes:Ġ\xe2\x80 6.973058
bytes:\x9c 0.15332136
Inter 0.22348495
pre 0.004916835
ter 0.00091765117
Ġof 0.018876769
ĠMal 0.0071306853
adies 0.0010390023
, 0.843873
bytes:\xe2\x80 0.011589434
bytes:\x9d 0.008118884
Ġthe 2.3948548
Ġevolution 6.959571
Ġof 0.03576134
ĠMr 0.17329761
. 0.0019637244
ĠDas 0.015102017
Ġserves 3.6983287
Ġas 0.36978322
Ġa 0.49333775
Ġcaution 2.724708
ary 0.005824991
Ġtale 0.055119902
, 3.583475
Ġstress 11.475297
Ġthe 4.136011
Ġimportance 0.21416095
Ġof 0.009019051
Ġintro 0.740113
spection 0.039445173
Ġand 0.45907265
Ġacknowledge 2.1330981
Ġreal 6.191652
ness 4.983323
Ġin 0.99370307
Ġrelationships 1.2839733
. 0.12173702
ĠMister 9.866236
ĠDas 0.39570776
's 1.0362577
Ġfailure 3.847721
Ġto 0.06822536
Ġconnect 2.1134992
Ġemotionally 3.8091736
Ġwith 1.3049741
Ġhis 0.081534274
Ġwife 0.7205204
Ġand 0.30042025
Ġchildren 0.37781125
Ġultimately 2.9059432
Ġleads 0.9402359
Ġto 0.048214156
Ġan 4.473556
Ġunravel 4.161005
ing 0.024468627
Ġof 0.07231756
Ġhis 0.7974846
Ġlife 4.8838744
. 0.89132184
ĠThis 2.7620106
Ġstory 2.7068017
Ġserves 2.8500898
Ġas 0.09999107
Ġa 0.33103934
Ġreminder 1.7234224
Ġthat 0.76047796
Ġgenuine 6.6257706
Ġconnections 1.9810783
Ġrequire 3.6497486
Ġintro 1.0577163
spective 2.7499022
Ġindividuals 6.2877893
Ġwho 2.3049846
Ġare 1.3613194
Ġwilling 1.0227993
Ġto 0.017071556
Ġface 2.4568605
Ġreality 1.8117903
Ġand 0.8219958
Ġaddress 4.698896
Ġthe 1.4580733
Ġemotional 2.6775713
Ġneeds 2.2366974
Ġof 0.09146389
Ġthose 2.6330702
Ġaround 0.5166448
Ġthem 0.030850936
. 0.050446488
ĠIgn 10.736706
oring 0.17091227
Ġthese 1.9796003
Ġcrucial 6.1213603
Ġaspects 2.0642114
Ġcan 3.1463103
Ġcause 2.8055754
Ġprofound 5.06394
Ġdamage 1.103609
, 2.7303448
Ġresulting 3.475791
Ġin 0.0097120665
Ġvitamin 14.544287
_ 13.998057
A 7.263541
Ġlife 9.449349
Ġdevoid 10.389075
Ġof 0.01116925
Ġmeaningful 2.9559197
Ġrelationships 0.5604679
. 0.3629296
