The 2.6440344
Ġshort 7.842958
Ġstory 3.3244255
Ġ" 2.1038296
Inter 7.6338916
pre 3.2495956
ter 0.25427014
Ġof 0.13129193
ĠMal 0.009651375
adies 0.00017493518
" 0.13830787
Ġby 0.67625594
ĠJ 0.080263615
h 0.0028929673
ump 0.0007050449
a 0.007459796
ĠLah 0.004287334
iri 0.015226585
Ġexplores 4.27722
Ġthe 0.55279297
Ġlife 3.7225108
Ġof 0.14378254
ĠMr 6.0541472
. 0.0713619
ĠDas 2.4602022
, 0.79337764
Ġa 0.7108012
Ġcharacter 4.8630204
Ġwhose 3.123083
Ġevolution 9.878941
Ġreveals 4.885364
Ġthe 0.8719152
Ġconsequences 5.854353
Ġof 0.118633434
Ġhis 1.99291
Ġinability 3.6321554
Ġto 0.024968024
Ġemotionally 5.740801
Ġconnect 0.8214056
Ġwith 0.27116162
Ġhis 0.8709515
Ġwife 1.2330571
Ġand 1.1317756
Ġchildren 1.2568527
. 0.19437157
ĠAt 3.9883869
Ġthe 0.3009669
Ġcommencement 6.927004
Ġof 0.0137631195
Ġthe 0.113169625
Ġstory 0.25332257
, 0.098979965
ĠMr 0.31771386
. 0.0033825573
ĠDas 0.012982798
Ġis 0.84028345
Ġportrayed 2.835653
Ġas 0.044390537
Ġa 0.5004188
Ġsympathetic 4.770649
Ġand 2.2218397
Ġbenevolent 5.3849144
Ġfigure 2.1928132
, 1.4004093
Ġbut 1.6095802
Ġas 1.4363121
Ġit 4.057188
Ġprogresses 0.33171552
, 0.33207694
Ġhis 1.295401
Ġdisdain 8.440269
Ġbecomes 4.500708
Ġevident 1.8370016
. 0.5844607
ĠThis 3.3448236
Ġtransformation 3.222229
Ġdemonstrates 4.336462
Ġthe 0.7858108
Ġimportance 3.5655398
Ġof 0.032778654
Ġintro 6.752446
spection 0.084691614
Ġand 0.83019614
Ġacknowledge 11.735418
Ġreality 6.7221513
Ġin 1.6996279
Ġorder 0.839798
Ġto 0.08166292
Ġmaintain 2.8601346
Ġmeaningful 4.0613294
Ġrelationships 0.2400425
. 0.30792764
Ċ 0.4853065
Initially 16.274494
, 0.050705556
ĠMr 0.3139327
. 0.001512243
ĠDas 0.0076151523
Ġappears 1.7874435
Ġas 2.257446
Ġa 0.2782465
Ġcaring 2.7244499
Ġfather 2.141473
Ġwho 2.08533
Ġsympath 5.4422483
izes 0.029241221
Ġwith 0.020978233
Ġhis 0.4164336
Ġchildren 1.6139768
's 0.94703776
Ġneeds 3.1375306
. 0.5426026
ĠHe 1.427022
Ġindul 5.937434
ges 0.017059373
Ġtheir 2.54894
Ġwishes 3.2539012
, 1.6947596
Ġsuch 2.3748782
Ġas 0.0063704904
Ġbuying 2.5691004
Ġthem 1.5867275
Ġch 4.8256187
ocol 0.03527963
ates 0.00022058284
Ġand 1.0135978
Ġsouven 7.072795
irs 0.029294703
Ġduring 2.8570778
Ġtheir 1.2924876
Ġvisit 1.9281167
Ġto 0.1368183
ĠIndia 1.379445
. 0.5857675
ĠHowever 2.277514
, 0.008622494
Ġbeneath 5.980217
Ġthis 1.0630326
Ġfa 2.4200072
ç 0.028376143
ade 0.00025239922
Ġof 1.34915
Ġbene 1.9907919
vol 0.00013548243
ence 0.000450811
, 1.0623074
Ġthere 2.840522
Ġis 0.4738987
Ġa 0.6378733
Ġlack 3.371793
Ġof 0.0061708787
Ġemotional 1.5453929
Ġconnection 0.9911577
. 0.9741458
ĠHe 2.2927876
Ġis 1.6987871
Ġunable 1.6662343
Ġto 0.021119006
Ġaddress 5.4650955
Ġthe 1.2037683
Ġcore 6.6371417
Ġissues 1.0034789
Ġin 2.3421345
Ġhis 0.21591903
Ġmarriage 1.3050455
Ġand 1.5041244
Ġfamily 3.2058778
, 1.3116919
Ġwhich 1.8527807
Ġultimately 2.3329542
Ġs 7.8819795
ours 0.4525967
Ġhis 0.5682043
Ġrelationships 0.8749089
. 0.92138135
Ċ 1.4992244
Mr 1.5374349
. 0.0060182684
ĠDas 0.016513465
's 1.5035269
Ġinability 2.2925594
Ġto 0.013365157
Ġintro 6.4124117
spect 0.0027451965
Ġand 1.3254715
Ġacknowledge 1.7172527
Ġreality 1.1093171
Ġis 1.094921
Ġpalpable 7.8710175
Ġin 1.0506636
Ġhis 0.47835204
Ġinteractions 1.8616537
Ġwith 0.017512795
Ġhis 0.12560518
Ġwife 0.7154013
. 1.088579
ĠMrs 4.5569696
. 0.004620353
ĠDas 0.0037151652
Ġyear 5.951351
ns 0.0041794293
Ġfor 0.32697865
Ġemotional 2.6210887
Ġintimacy 1.5491496
, 1.0732542
Ġbut 0.5465335
Ġher 1.142134
Ġhusband 0.12711142
Ġis 0.92756134
Ġoblivious 3.569974
Ġto 0.20160697
Ġher 0.32601857
Ġneeds 0.9530338
. 0.15326542
ĠHe 1.4254811
Ġremains 4.5755143
Ġdetached 2.8378277
, 1.651957
Ġfocusing 4.5266266
Ġon 0.75158876
Ġtrivial 2.829815
Ġpursuits 5.383863
Ġand 2.9561322
Ġrefuse 9.612818
Ġto 0.04940952
Ġacknowledge 1.8301044
Ġthe 1.1412497
Ġemotional 4.0083227
Ġstrains 6.7545633
Ġin 0.38893753
Ġtheir 0.55488604
Ġrelationship 1.1044425
. 0.06950805
ĠThis 2.1834114
Ġlack 3.1690264
Ġof 0.010097561
Ġintro 3.677329
spection 0.019273022
Ġleads 2.6291704
Ġto 0.4120704
Ġtheir 3.636179
Ġmutual 4.055078
Ġisolation 3.6697109
, 1.4599655
Ġwhich 1.2106618
Ġculmin 3.7467928
ates 0.023749562
Ġin 0.19923005
ĠMrs 1.2820747
. 0.0016879161
ĠDas 0.006731003
's 0.51842934
Ġdecision 2.510381
Ġto 0.009107773
Ġhave 3.9964774
Ġan 0.15608189
Ġaffair 0.48839203
. 0.26984212
Ċ 1.0919942
As 3.9541626
Ġthe 1.3495001
Ġstory 0.27306762
Ġunfolds 2.9168668
, 0.017373038
ĠMr 0.35482675
. 0.0038656353
ĠDas 0.0122104585
's 0.77220094
Ġdisdain 4.845257
Ġbecomes 2.561957
Ġincreasingly 1.6376636
Ġapparent 1.0002705
. 0.22064021
ĠWhen 3.1953466
ĠMrs 1.9764804
. 0.001913523
ĠDas 0.0036303618
Ġconf 4.5313554
ides 0.0069255345
Ġin 0.3052835
Ġhim 0.25002837
Ġabout 0.390746
Ġher 0.16249101
Ġaffair 0.67269474
, 0.065927505
Ġhe 0.26380157
Ġdismiss 3.4297006
es 0.014399017
Ġher 0.2762005
Ġfeelings 2.5340428
, 1.5856493
Ġshowcasing 8.512575
Ġhis 0.2782435
Ġoriginate 19.49904
Ġindifference 3.3140965
Ġtowards 1.999902
Ġtheir 2.4385526
Ġrelationship 0.78271115
. 0.05593772
ĠThis 2.4595916
Ġdisdain 4.353582
Ġis 0.7900261
Ġbesides 15.983578
Ġevident 1.4068269
Ġin 0.35460043
Ġhis 0.29293078
Ġtreatment 3.0198233
Ġof 0.053378064
Ġtheir 3.2441804
Ġchildren 0.7489143
. 0.22692333
ĠHe 1.2185657
Ġpays 6.3060246
Ġa 5.5504093
Ġtaxi 7.2250586
Ġdriver 0.18885553
Ġto 0.36762285
Ġpretend 4.699184
Ġto 0.59091073
Ġconstitute 13.8033
Ġtheir 1.9001911
Ġfather 1.0397002
Ġand 1.8553356
Ġrefuses 4.2698836
Ġto 0.022488361
Ġinteract 4.6828566
Ġwith 0.025893116
Ġthem 0.42300677
Ġduring 3.0364184
Ġtheir 0.34002632
Ġouting 6.9588976
. 0.64970976
ĠThis 2.1416678
Ġcall 4.5002985
ous 0.0073856018
Ġbehavior 1.7853453
Ġillustrates 3.4309673
Ġhis 0.50106937
Ġemotional 4.3476377
Ġdetachment 0.6893008
Ġand 1.2214082
Ġhighlights 3.4618819
Ġthe 0.9754322
Ġconsequences 1.9811856
Ġof 0.028977111
Ġhis 0.7498106
Ġinability 0.7076498
Ġto 0.0061600967
Ġconnect 2.777069
Ġwith 0.19377817
Ġhis 0.4485107
Ġfamily 0.35231724
. 0.1486935
Ċ 0.18304855
The 2.3537898
Ġevolution 3.4726117
Ġof 0.010905511
ĠMr 0.07081996
. 0.002397771
ĠDas 0.0047448226
Ġas 4.3108726
Ġa 0.10741967
Ġcharacter 0.100268364
Ġillustrates 1.7927964
Ġthe 0.08457069
Ġdire 5.754166
Ġconsequences 0.18316588
Ġof 0.05153808
Ġavoiding 4.4122443
Ġintro 0.6903265
spection 0.00841706
Ġand 0.5496002
Ġdenying 3.3835783
Ġreality 0.09176736
. 0.076626964
ĠHis 1.4581791
Ġrefusal 3.8362749
Ġto 0.009941774
Ġacknowledge 0.47238675
Ġhis 1.2454774
Ġwife 1.5811229
's 0.12713042
Ġunh 3.8944352
appiness 0.0002420395
Ġand 0.92999417
Ġhis 0.956526
Ġown 2.6396632
Ġemotional 2.5165086
Ġdetachment 0.6975337
Ġultimately 3.2268157
Ġlead 2.7064104
Ġto 0.03699444
Ġthe 1.2329077
Ġbreakdown 2.5050817
Ġof 0.023676798
Ġtheir 0.55535877
Ġmarriage 0.45984793
Ġand 1.4826717
Ġthe 2.529889
Ġcrumbling 6.982833
Ġof 0.011083542
Ġtheir 0.4834929
Ġfamily 0.19534397
Ġunit 2.6607363
. 0.0067011584
ĠThis 2.3678894
Ġhighlights 5.0932755
Ġthe 0.021220896
Ġsignificance 3.0207326
Ġof 0.009785366
Ġself 2.3902848
- 0.046140466
ref 0.64995366
lection 0.00235781
Ġand 0.44047174
Ġfacing 6.2070007
Ġthe 2.1082213
Ġtruth 1.2389535
. 2.234269
Ċ 2.0964558
By 3.71308
Ġintro 9.567062
spect 0.021417178
ing 0.008371667
, 2.0115633
Ġindividuals 4.665373
Ġcan 0.5701369
Ġidentify 2.4510417
Ġtheir 0.76370895
Ġshortcomings 2.193881
Ġand 0.12809533
Ġconfront 3.9431431
Ġtheir 1.502095
Ġemotional 3.9192636
Ġlimitations 4.523303
. 0.32407406
ĠIntro 7.6253567
spection 0.047266986
Ġallow 7.4636364
Ġone 3.7748725
Ġto 0.02037265
Ġbe 4.2123933
Ġmore 2.1665158
Ġatt 3.2861505
uned 0.07582195
Ġto 0.10868826
Ġthe 1.2695932
Ġneeds 0.8441706
Ġand 2.733319
Ġemotions 1.9266305
Ġof 0.0048366534
Ġothers 0.3606117
, 0.88210887
Ġfostering 3.7927277
Ġemotional 3.8831992
Ġconnection 1.765979
Ġand 0.5156011
Ġpreventing 4.7728853
Ġdisillusion 6.5621996
ment 0.053149305
Ġin 2.2780194
Ġrelationships 0.6244251
. 0.0186395
ĠLikewise 6.9118953
, 0.0030719487
Ġacknowledging 1.7022705
Ġreality 0.18844557
Ġis 1.6059741
Ġessential 1.8361988
Ġfor 1.7186999
Ġmaintaining 1.5008498
Ġhealthy 2.1003957
Ġrelationships 0.19541752
. 0.21340825
ĠDen 3.3654666
ying 0.36943138
Ġor 3.6386607
Ġdown 4.3810806
playing 0.0032962977
Ġissues 2.9162948
Ġonly 2.7070432
Ġdeep 6.2011247
ens 0.0016123392
Ġthe 0.6517575
Ġrift 2.042254
Ġbetween 0.98787004
Ġindividuals 0.6565769
Ġand 1.1342965
Ġinhibits 5.7319546
Ġgenuine 4.596016
Ġconnections 3.2407212
. 0.08322274
Ċ 1.0197291
In 2.4173222
bytes:Ġ\xe2\x80 9.150038
bytes:\x9c 0.050064996
Inter 0.13625538
pre 0.0028187896
ter 0.004458247
Ġof 0.020479752
ĠMal 0.007962666
adies 0.00075030565
, 1.0229216
bytes:\xe2\x80 0.012843121
bytes:\x9d 0.0007725821
Ġthe 2.3654814
Ġevolution 2.9479675
Ġof 0.010181234
ĠMr 0.16457908
. 0.0009130132
ĠDas 0.0052887807
Ġserves 3.6881156
Ġas 0.09598986
Ġa 0.29564908
Ġcaution 1.0563495
ary 0.006009495
Ġtale 0.04277398
, 1.9415342
Ġstress 12.280758
Ġthe 0.32855037
Ġimportance 0.23305573
Ġof 0.006729338
Ġintro 0.69892335
spection 0.10726859
Ġand 0.07468446
Ġacknowledge 1.9160744
Ġreal 7.1196885
ness 6.471299
Ġin 0.53136843
Ġrelationships 2.0613415
. 0.10648409
ĠMister 14.195056
ĠDas 0.046094246
's 2.4352896
Ġfailure 2.5952456
Ġto 0.02095161
Ġconnect 3.9546523
Ġemotionally 2.1249855
Ġwith 0.1230599
Ġhis 0.062206984
Ġwife 0.5930378
Ġand 0.1683992
Ġchildren 0.1836905
Ġultimately 1.3502874
Ġleads 0.87089956
Ġto 0.019509196
Ġan 5.7584596
Ġunravel 4.2239165
ing 0.025328044
Ġof 0.07755799
Ġhis 1.0863255
Ġlife 4.034018
. 0.53127813
ĠThis 1.5019783
Ġstory 1.9025893
Ġserves 3.128839
Ġas 0.09899606
Ġa 0.2836854
Ġreminder 0.75663
Ġthat 0.9078199
Ġgenuine 4.115046
Ġconnections 1.2846487
Ġrequire 2.1588945
Ġintro 2.3075802
spective 3.4833302
Ġindividuals 3.9193878
Ġwho 0.48672497
Ġare 0.6938248
Ġwilling 1.1556112
Ġto 0.057656057
Ġface 1.4445412
Ġreality 1.2563733
Ġand 1.1207395
Ġaddress 2.7776842
Ġthe 1.4495828
Ġemotional 2.0839076
Ġneeds 0.9544971
Ġof 0.027766114
Ġthose 2.5000288
Ġaround 0.44808894
Ġthem 0.013162113
. 0.023869928
ĠIgn 10.187522
oring 0.018793475
Ġthese 1.0121415
Ġcrucial 3.1123047
Ġaspects 1.6877817
Ġcan 2.344338
Ġcause 3.5396519
Ġprofound 4.3401403
Ġdamage 1.7059053
, 2.7257695
Ġresulting 3.1653569
Ġin 0.020721959
Ġvitamin 17.755491
_ 8.636645
A 5.302669
Ġlife 6.436532
Ġdevoid 2.7685413
Ġof 0.008660186
Ġmeaningful 1.4913678
Ġrelationships 0.30346557
. 0.07992317
