Introduction 7.644237
Ċ 0.5135639
In 11.548045
Ġevery 6.91324
Ġhealthcare 8.180262
Ġsetting 1.8458272
, 0.39915663
Ġthe 2.15918
Ġneed 3.1996558
Ġto 1.4892968
Ġmeet 5.732106
Ġoptimal 7.7336826
Ġpatient 0.8371812
Ġcare 1.7136551
Ġrequires 3.6827474
Ġnurses 7.3103046
Ġto 0.6185447
Ġmaintain 4.8237867
Ġethical 7.7345586
Ġpractices 5.0638075
Ġand 1.3871033
Ġfollow 5.2768526
Ġthe 1.7627227
Ġoutlined 8.750013
Ġprinciples 2.4851582
Ġeffectively 12.969492
. 0.3786963
ĠThe 2.127339
Ġrelationship 6.7559886
Ġbetween 0.14801686
Ġthe 2.2399654
Ġsick 10.437068
Ġindividual 5.3738656
, 2.2948072
Ġrelative 9.328718
, 1.7640033
Ġand 0.72687435
Ġpractitioner 6.2283597
Ġis 0.84770626
Ġvital 3.735393
Ġfor 2.2659113
Ġensuring 3.3334665
Ġbetter 6.574265
Ġservices 7.6111393
Ġto 2.6110044
Ġthe 1.142167
Ġa 11.035087
iling 0.03578597
Ġperson 4.26298
. 0.56633097
ĠIn 2.6158843
Ġmost 4.2754655
Ġcases 1.3776958
, 0.11350701
Ġnurses 2.5097828
Ġare 1.3883122
Ġfaced 3.903382
Ġwith 0.0120818615
Ġtechnical 8.56806
Ġsituations 5.361039
Ġthat 1.334402
Ġrequire 1.1751379
Ġthem 1.968603
Ġto 0.0083922455
Ġmake 1.696451
Ġsensible 9.551918
Ġdecisions 0.599966
Ġwhile 5.246845
Ġtaking 4.332125
Ġinto 0.5724169
Ġconsideration 0.8883806
Ġthe 0.6090293
Ġwelfare 5.63442
Ġof 0.12500453
Ġthe 0.4533606
Ġclient 5.330918
Ġand 1.6121598
Ġfamily 5.3255653
Ġmembers 1.5535944
Ġ( 5.038281
Br 6.031694
atz 5.872627
Ġ& 6.0698957
ĠSand 7.346423
oval 4.039155
- 3.165808
Ram 4.668843
irez 0.39425477
, 0.113472685
Ġ2018 5.247641
). 0.1254
Ċ 2.4501548
Such 15.302761
Ġchallenging 6.878987
Ġmoments 5.4558973
Ġcall 4.263776
Ġfor 0.08972294
Ġthe 2.2405117
Ġcaregivers 9.271192
Ġto 0.45333844
Ġcritically 6.796749
Ġapply 7.412143
Ġthe 1.1134086
Ġprinciples 0.9314062
Ġof 0.4563702
Ġbenefic 8.120057
ence 0.22674072
, 1.3406614
Ġnon 4.7579646
- 0.2607007
mal 0.56270623
ef 0.20910317
ic 0.026224043
ence 0.004470226
, 0.10246493
Ġautonomy 6.432397
, 0.17738861
Ġand 0.42876557
Ġjustice 4.0497108
Ġto 2.2099013
Ġensure 1.7354819
Ġthey 4.7015705
Ġoptim 9.245856
ally 0.19257419
Ġattend 6.8724933
Ġto 0.102866046
Ġthe 0.42049775
Ġcustomers 10.244734
Ġappropriately 10.714918
. 0.87533945
ĠMor 8.741128
als 3.56252
Ġallow 7.713081
Ġnurses 2.2146933
Ġto 0.06324233
Ġdetect 7.242593
Ġethical 3.5884743
Ġdile 2.4249723
mm 0.0022793915
as 0.00033749174
Ġin 1.954188
Ġthe 1.5912205
Ġwork 4.543278
Ġenvironment 0.8785771
Ġand 0.84210205
Ġmake 3.3531888
Ġsound 3.1217933
Ġjudgments 3.7436888
Ġand 3.6218884
Ġpractical 6.0837913
Ġdecisions 0.70905125
Ġaccording 5.462698
Ġto 0.008494493
Ġtheir 2.2614996
Ġvalues 3.6522253
Ġand 1.0248976
Ġbeliefs 2.269508
Ġwhile 4.7284613
Ġmaintaining 2.528229
Ġtheir 2.7686403
Ġconduct 8.494725
Ġwithin 3.6416044
Ġthe 0.37619016
Ġlaws 4.819453
Ġthat 4.5124664
Ġgovern 0.666584
Ġtheir 1.5733145
Ġprofession 0.98684865
. 0.4441694
Ċ 1.474799
Based 9.490783
Ġon 0.054874424
Ġthe 0.92658263
Ġcurrent 4.7514334
Ġhealth 5.3907266
Ġstatus 6.5678635
Ġof 0.39461878
ĠMr 11.256728
. 0.09197114
ĠNew 9.050618
comb 3.86737
, 0.41914207
ĠI 2.5043213
Ġwould 2.761214
Ġapprove 11.969366
Ġthe 1.9203022
Ġrequest 5.5093513
Ġto 1.0521386
Ġmeet 5.3700624
Ġhis 3.1634412
Ġmistress 11.1771345
. 1.8746326
ĠFirst 6.6104875
, 0.50847596
ĠMr 2.945188
. 0.026398629
ĠNew 0.054588407
comb 0.0022817822
Ġis 1.7864442
Ġat 5.097188
Ġa 1.5100013
Ġcritical 2.4551466
Ġstage 0.7453451
Ġof 0.47044802
Ġpancreat 10.586028
ic 0.027597316
Ġcancer 0.21079403
, 1.9772948
Ġand 1.1769643
Ġhaving 5.9339833
Ġin 7.051617
Ġmind 2.2169626
Ġall 4.983861
Ġthe 0.5846416
Ġpain 6.5160565
Ġhe 1.4229301
Ġis 0.7931279
Ġgoing 1.6492906
Ġthrough 0.116646305
; 6.1530204
Ġit 2.2203887
Ġwould 1.7322352
Ġbe 0.21057151
Ġappropriate 4.375402
Ġto 0.4072135
Ġconsider 4.54426
Ġhis 1.2310541
Ġwish 5.459692
. 4.1883855
ĠCurrently 6.840087
, 0.1815473
Ġhe 1.5151228
Ġis 0.47714704
Ġunder 3.9307907
Ġhosp 3.6420426
ice 0.008153651
Ġcare 0.1840451
, 1.3080591
Ġwhere 3.4583488
Ġthe 2.3368087
Ġmain 4.996605
Ġfocus 2.8480732
Ġis 0.6031117
Ġto 1.577025
Ġensure 2.6749394
Ġhe 1.4270091
Ġreceives 1.4362267
Ġquality 4.102116
Ġtime 5.429848
Ġand 3.2048633
Ġcomfort 4.953309
Ġexperience 10.127555
Ġbefore 3.8455417
Ġhis 1.9163555
Ġdeath 0.82118726
Ġtime 9.203119
. 0.26647893
ĠAt 4.8728337
Ġthis 1.5167894
Ġpoint 1.0919573
, 0.27938262
Ġanything 8.587281
Ġthat 1.638547
Ġmakes 4.23105
ĠMr 2.2004836
. 0.0041853357
ĠNew 0.013437296
comb 0.0019608408
Ġhappy 3.6412272
Ġmatters 6.9536405
Ġmost 3.2226708
Ġfor 3.75978
Ġhis 1.1802304
Ġlife 4.8282213
. 0.9437797
ĠHe 3.5509415
Ġneeds 3.1267445
Ġsomething 5.757379
Ġthat 1.3017313
Ġcan 2.9413598
Ġmake 2.092645
Ġhim 0.41370505
Ġhappy 2.1606936
Ġto 4.1557255
Ġleng 12.558706
then 0.0039255954
Ġhis 0.23928374
Ġdays 3.6559443
. 1.2309076
Ċ 2.076202
Dis 8.352753
appro 5.1801996
ving 0.6637667
Ġthe 1.5423162
Ġrequest 0.35618627
Ġwould 1.8718232
Ġdiminish 7.513904
Ġthe 1.0872273
Ġtrust 5.669839
ĠMr 3.0632706
. 0.0028589286
ĠNew 0.0072418787
comb 0.002269055
Ġhas 0.22500378
Ġin 0.41143435
Ġme 2.4670444
, 1.450306
Ġand 0.9200602
Ġhe 3.9522998
Ġwill 2.732294
Ġprobably 3.955026
Ġstart 5.4786453
Ġwithdrawing 6.3314633
Ġhis 1.6297696
Ġattention 5.8477225
Ġfrom 0.76290095
Ġmy 2.5795774
Ġservices 5.1848273
, 2.7403114
Ġwhich 1.7632563
Ġwill 1.9974524
Ġbe 2.5373828
Ġdisastrous 4.367985
Ġfor 0.4202814
Ġhis 1.6405021
Ġhealth 1.1400896
. 0.54212165
ĠTherefore 2.6009343
, 0.043406334
Ġto 4.8487964
Ġmaintain 4.295367
Ġthe 1.1433178
Ġconnection 6.835241
Ġand 2.455589
Ġensure 3.5275385
Ġhe 1.6165774
Ġreceives 2.4005394
Ġquality 1.8016498
Ġcare 0.83133864
, 0.36678505
ĠI 0.30288693
Ġwould 1.1503278
Ġensure 6.372679
Ġhis 3.9513211
Ġdesires 5.7639365
Ġare 0.32599464
Ġmet 1.106106
. 0.93617886
ĠThe 3.3296282
Ġpractice 6.7496367
Ġwill 4.447309
Ġbe 1.5805283
Ġgood 5.783243
Ġfor 0.66781026
Ġthe 2.2783344
Ġpatient 0.9401335
bytes:\xe2\x80 3.325707
bytes:\x99 0.0016651436
s 0.0005627192
Ġhealth 0.9186469
, 1.0077869
Ġbut 1.9424944
Ġfor 4.3122725
Ġhis 2.0318425
Ġwife 5.403211
, 1.0477602
Ġit 1.8108941
Ġwould 1.0295273
Ġsound 8.513026
Ġlike 1.0378276
Ġa 1.1000323
Ġbetrayal 3.0446434
. 1.1458077
ĠAs 4.270403
Ġa 1.1062453
Ġnurse 1.6620818
, 0.15325598
ĠI 0.37378955
Ġwill 2.6352837
Ġmake 3.4065435
Ġit 3.28256
Ġsecret 13.584332
Ġafter 7.9349604
Ġinqu 8.819961
iring 0.004371861
Ġabout 1.4065143
Ġthe 1.2782199
Ġrelationship 3.7831213
Ġbetween 1.6237384
ĠMr 1.3849133
. 0.00582617
ĠNew 0.031576306
comb 0.001857411
Ġand 0.061592914
Ġthe 2.2690136
Ġmistress 1.1010054
Ġfrom 6.436587
Ġhim 4.6642766
. 0.4811533
ĠOnce 5.102167
ĠI 0.9928786
Ġrealize 5.906508
Ġthe 1.5785968
Ġrelationship 1.5271399
Ġis 0.7501302
Ġhealthy 3.8714364
, 0.29343963
ĠI 0.274555
Ġwill 0.45038778
Ġformulate 8.42448
Ġa 0.6265885
Ġway 4.071573
Ġof 2.65688
Ġallowing 5.7591853
Ġthe 1.4186056
Ġpatient 1.2742006
Ġto 0.28362775
Ġmeet 2.0936332
Ġhis 1.3868967
Ġfriend 5.3750896
. 1.4139488
Ċ 1.146844
Princ 10.375616
iple 0.13272807
Ġof 0.65635365
ĠBenef 2.5225997
ic 0.14215955
ence 0.008673225
Ċ 0.9236019
In 2.2992346
Ġhealthcare 6.1591697
, 0.48381907
Ġthe 1.3690342
Ġprinciple 3.119361
Ġof 0.009160104
Ġbenefic 0.029423784
ence 0.0066125835
Ġrequires 4.5837426
Ġa 2.4817195
Ġnurse 1.5317758
Ġto 0.09010789
Ġbe 3.001837
Ġkind 3.9535747
Ġand 1.1707755
Ġact 6.2108727
Ġin 1.2279619
Ġa 0.90955275
Ġway 1.6437358
Ġthat 0.18699414
Ġbenefits 3.0695007
Ġthe 0.49451917
Ġpatient 0.40422797
. 0.91299677
ĠCare 6.0120544
g 0.16857739
ivers 0.037951853
Ġare 1.8328835
Ġexpected 2.7462595
Ġto 0.02468629
Ġsupport 5.883983
Ġthe 0.9582072
Ġwelfare 8.185442
Ġof 0.0814466
Ġsick 6.1184278
Ġindividuals 2.0416288
Ġby 2.170221
Ġpreventing 6.0404096
Ġany 4.1240873
Ġharm 1.2009956
Ġwhile 5.633127
Ġpreserving 5.3498116
Ġmoral 6.854198
Ġrules 4.874922
Ġ( 3.633774
G 4.063269
iles 6.21153
Ġet 2.5607965
Ġal 0.075418085
., 0.18724568
Ġ2018 3.0028327
). 0.091843136
ĠIn 2.3316422
Ġthe 1.6956233
Ġcase 1.9434385
Ġof 0.0372376
ĠMr 0.50059956
. 0.012928704
ĠNew 0.021418536
comb 0.0028291005
, 0.09549285
Ġhe 2.5631711
Ġwanted 7.1304126
Ġto 0.37578082
Ġmeet 1.3262662
Ġhis 0.38389662
Ġmistress 1.5024045
, 1.2416387
Ġand 1.1705877
Ġthe 2.4642384
Ġaction 8.258206
Ġwould 2.207013
Ġbring 5.587029
Ġhim 1.3672853
Ġjoy 3.4942553
Ġand 1.8468544
Ġhappiness 1.3664885
Ġthat 5.6261334
, 6.6897607
Ġin 0.9384445
Ġreturn 4.1015215
, 0.03626139
Ġimproved 7.328346
Ġhis 0.20570014
Ġhealth 0.49742198
Ġcondition 5.542251
. 0.28597283
ĠAll 6.561873
owing 0.25529888
Ġinteraction 11.801378
Ġbetween 1.4487909
Ġthe 0.73083913
Ġpatient 0.5115903
Ġand 0.047335334
Ġthe 0.9305568
Ġvisitor 6.1409526
Ġis 1.6712035
Ġan 2.5010304
Ġact 2.0253127
Ġthat 2.6756282
Ġfollows 5.838001
Ġthe 0.41437396
Ġmoral 6.16369
Ġof 6.4357486
Ġbenefic 0.06264501
ence 0.0062563047
. 0.52653974
ĠAt 6.0716324
Ġthe 0.77528363
Ġsame 0.63396853
Ġtime 0.013912601
, 0.017411279
Ġkeeping 6.237162
Ġit 4.1493783
Ġa 1.8926322
Ġsecret 0.25057307
Ġfrom 2.6321447
Ġtheir 6.653498
Ġwife 2.6647727
Ġis 1.4725868
Ġprotecting 9.52719
Ġhim 4.9254637
Ġfrom 0.39772886
Ġguilt 5.9338083
Ġand 1.157553
Ġfear 4.4182544
Ġthat 2.836846
Ġwould 2.2840853
Ġcause 2.8405566
Ġhis 2.819555
Ġstatus 8.8765
Ġto 0.19324681
Ġdeterior 2.3639405
ate 0.00069745025
Ġabnorm 12.553185
ally 0.0043543815
, 3.171645
Ġreducing 6.39385
Ġthe 1.9557849
Ġnumber 4.7904077
Ġof 0.017271973
Ġhis 2.5768356
Ġdays 1.35856
Ġto 2.6842012
Ġlive 7.158904
. 0.4289294
Ċ 1.2962074
Princ 4.37441
iple 0.000867576
Ġof 0.0049393745
ĠNon 0.16327414
- 0.0622996
Mal 1.3511515
ef 0.0069942535
ic 0.025542825
ence 0.0056911646
Ċ 0.026463686
The 2.1332624
Ġprinciple 0.13880356
Ġof 0.004355698
Ġnon 0.02989858
- 0.0020913442
mal 0.001633084
ef 0.003524993
ic 0.005287216
ence 0.0020429061
Ġprohibits 4.3375354
Ġnurse 6.4554396
Ġpractitioners 2.0220447
Ġfrom 0.647956
Ġengaging 3.2676237
Ġin 0.048981808
Ġany 2.5967603
Ġaction 3.2119837
Ġintentionally 7.343689
Ġthat 2.6031756
Ġcan 4.8615656
Ġharm 0.78290415
Ġthe 0.6702507
Ġpatient 0.30320635
. 0.85207665
ĠBased 6.982637
Ġon 0.01074923
Ġthe 0.6673419
Ġcase 4.167863
Ġof 0.44478837
ĠMr 0.17667201
. 0.004052045
ĠNew 0.03672999
comb 0.0015796522
, 0.065650575
Ġrejecting 10.18201
Ġhis 1.1441246
Ġrequest 0.29251373
Ġwould 0.6300384
Ġcause 3.4257233
Ġhim 0.81999993
Ġstress 4.8676686
Ġand 0.67864203
Ġpain 3.1793718
Ġfollowing 10.445836
Ġthe 1.1868864
Ġsens 12.415789
itiveness 3.1368232
Ġof 0.644777
Ġthe 1.4880961
Ġwish 6.284257
. 0.9916606
ĠTherefore 2.8700044
, 0.011234111
Ġfinding 8.076252
Ġa 0.6560924
Ġmeans 5.3343477
Ġof 1.1848323
Ġgiving 4.634636
Ġhim 0.5656444
Ġa 2.1463063
Ġchance 2.7992024
Ġto 0.2433257
Ġmeet 0.56412834
Ġthe 2.223745
Ġmistress 0.74337715
Ġwould 1.0318921
Ġbe 0.36718854
Ġof 4.204187
Ġgreat 1.2641025
Ġhelp 1.9937373
Ġto 1.4689448
Ġhis 1.3411266
Ġcare 5.21798
. 0.68007827
ĠI 3.6896822
Ġalready 8.232516
Ġknew 3.2619948
Ġthat 1.1903478
Ġrefusing 11.317469
Ġto 2.3249824
Ġgrant 4.7792163
Ġthe 1.0965286
Ġpermission 4.7839117
Ġwould 0.69368905
Ġresult 3.4391162
Ġin 0.029367682
Ġmore 5.1617823
Ġtra 10.861849
um 0.38549626
as 0.005114239
Ġfor 1.0186138
Ġthe 1.5227442
Ġpatient 0.105178006
; 4.0041676
Ġhence 4.6318636
, 0.1257846
Ġif 4.700947
ĠI 0.8049681
Ġdeclined 9.476817
Ġintentionally 12.538767
, 0.28090468
Ġmy 3.931387
Ġpractice 5.051523
Ġwould 0.3976753
Ġbe 0.8530236
Ġagainst 6.254902
Ġthe 0.35924113
Ġprinciple 2.8376768
Ġof 0.18209656
Ġnon 0.75334555
- 0.00011475737
mal 0.00327344
ef 0.0064382358
ic 0.008396635
ence 0.002667186
Ġ( 3.3633254
Il 9.976678
k 3.192631
af 11.22025
ah 5.121541
Ġet 1.9258538
Ġal 0.005846075
., 0.07195121
Ġ2021 9.721082
). 0.0789979
ĠIf 4.0544233
ĠI 0.76443803
Ġweigh 11.92006
Ġthe 0.5169798
Ġburdens 8.513125
Ġof 0.96057147
Ġdenying 4.9866037
Ġand 4.4830484
Ġgranting 2.7607431
Ġthe 0.94676256
Ġopportunity 6.4556165
, 0.8896938
Ġaccepting 5.638073
Ġthe 0.8147612
Ġrequest 0.9457997
Ġpresents 8.373128
Ġmore 3.3134649
Ġbenefits 1.9093817
Ġto 1.3367362
Ġthe 0.45085064
Ġwelfare 9.850887
Ġof 0.035509434
ĠMr 1.681024
. 0.0026060492
ĠNew 0.0041422416
comb 0.001644069
, 1.8698332
Ġwhich 2.4655933
Ġis 2.0603812
Ġnecessary 4.8434134
Ġfor 0.8629906
Ġhis 0.90953285
Ġhosp 8.215326
ice 0.005978102
Ġcare 0.34877923
Ġmanagement 7.1012697
. 0.33118007
Ċ 0.643254
Princ 0.730992
iple 0.0005953401
Ġof 0.0021225843
ĠAut 1.0083529
onomy 0.0031967177
Ċ 0.101304285
The 1.6962444
Ġprinciple 0.097381875
Ġof 0.0023466034
Ġautonomy 0.027478084
Ġallows 2.6539125
Ġpatients 3.5975163
Ġto 0.14063789
Ġmake 2.2456634
Ġindependent 3.7516406
Ġdecisions 0.4668155
Ġconcerning 4.00651
Ġtheir 0.35505155
Ġneeds 4.6216164
. 1.596577
ĠAccording 4.2195573
Ġto 0.004099266
Ġthe 0.82163125
Ġscenario 9.54266
Ġof 0.34224042
ĠMr 0.10052751
. 0.0019203541
ĠNew 0.0060426826
comb 0.0019367777
, 0.094209544
Ġhe 1.5401523
Ġhad 3.1097147
Ġthe 3.124858
Ġright 1.6610377
Ġto 0.07086569
Ġmoral 11.229465
Ġpractice 7.9442806
. 2.818384
ĠTherefore 2.38609
, 0.019751709
Ġit 2.9164565
Ġis 0.95837635
Ġethical 5.827979
Ġto 0.65616554
Ġallow 1.6103413
Ġhim 0.5065257
Ġto 0.26277894
Ġexercise 6.8627477
Ġhis 0.4626804
Ġcapacity 4.9783216
Ġof 2.5010355
Ġsovereignty 9.149324
. 1.7211975
ĠUpon 7.699377
Ġhearing 3.7731054
Ġthe 0.68047446
Ġpatient 2.770768
bytes:\xe2\x80 0.14177403
bytes:\x99 0.0020064123
s 0.00041637692
Ġrequest 0.96044356
, 0.1960162
ĠI 0.31011754
Ġwould 0.53826714
Ġhave 3.8227642
Ġto 0.44088018
Ġassess 4.6042633
Ġhis 2.1521728
Ġability 4.3428454
Ġto 0.16777395
Ġcarry 4.6300445
Ġon 3.0492585
Ġwith 2.2152762
Ġthe 1.3354648
Ġwish 5.1419473
. 1.0974886
ĠIf 1.4746048
Ġhe 1.4024509
Ġis 1.1391617
Ġcapable 3.356534
, 1.2639449
Ġthen 2.3268788
Ġthe 2.8274572
Ġprinciple 3.762857
Ġapplies 7.282817
, 2.3652816
Ġand 1.0833617
Ġthe 2.5085301
Ġindividual 7.019329
Ġexplores 13.016085
Ġhis 1.5063378
Ġself 5.628554
- 0.15814292
determination 1.3714256
. 1.4240888
ĠWhen 4.6614037
ĠI 1.9499224
Ġallowed 6.515292
ĠMr 0.9330577
. 0.0054654363
ĠNew 0.0029669486
comb 0.0015063436
Ġto 0.159353
Ġmeet 0.59302074
Ġhis 0.4352112
Ġmistress 0.8785394
Ġfollowing 8.684782
Ġhis 1.3981603
Ġdecision 4.495452
, 0.9884189
ĠI 0.73293936
Ġad 9.317392
hered 0.03225719
Ġto 0.051659513
Ġthe 0.238909
Ġpractice 6.9705763
Ġof 0.1058816
Ġautonomy 1.0708685
Ġto 3.8828602
Ġimprove 5.9553003
Ġpatient 4.324199
Ġcare 0.57882637
Ġservices 6.24504
. 0.5932729
Ċ 0.7596659
Princ 0.34744066
iple 0.00064001424
Ġof 0.0027300604
ĠJustice 0.024415068
Ċ 0.024548715
In 1.467824
Ġnursing 4.641127
, 0.4550489
Ġthe 0.645086
Ġprinciple 0.08064533
Ġof 0.0035771532
Ġjustice 0.0137341395
Ġrequires 1.6237019
Ġnurses 2.6988058
Ġto 0.030449484
Ġpractice 6.0364337
Ġfairness 4.85722
, 1.6315706
Ġequ 6.0528045
itability 2.0070693
, 0.10010921
Ġand 0.2726102
Ġequality 3.3718584
Ġfor 3.63743
Ġall 1.0019362
Ġpatients 1.1615179
. 0.5980565
ĠThe 2.186377
Ġmoral 5.477261
Ġpromotes 9.752759
Ġrecognition 8.460471
Ġof 0.44329694
Ġa 3.8090925
Ġsick 6.375897
Ġperson 0.7323116
bytes:\xe2\x80 0.12419359
bytes:\x99 0.0029049583
s 0.0004865636
Ġdignity 2.5894973
Ġirrespective 8.0528145
Ġof 0.0123561565
Ġtheir 1.0290314
Ġstatus 2.0378282
Ġ( 2.0491195
Sil 7.5540023
va 0.6546849
Ġ& 1.7713084
ĠOlive 7.7514
ira 0.1678302
, 0.06253841
Ġ2020 8.064861
). 0.059349526
ĠAccording 3.796864
Ġto 0.0043076267
Ġthe 0.31533664
Ġscenario 2.3042407
Ġof 0.061641157
ĠMr 0.035639323
. 0.008054803
ĠNew 0.0061684987
comb 0.0012841838
, 0.036857933
ĠI 2.3018022
Ġwould 1.3199792
Ġapply 6.234923
Ġthe 0.5387203
Ġstandard 8.438808
Ġby 5.793132
Ġallowing 3.9265985
Ġhim 0.40039754
Ġto 0.13934717
Ġmeet 0.3189358
Ġhis 0.21042696
Ġmistress 0.88372254
. 0.7265387
ĠThe 2.546596
Ġpractice 4.053304
Ġwould 1.9014536
Ġfollow 5.8409166
Ġthe 0.226509
Ġrequirement 7.2979684
Ġof 0.13529325
Ġjustice 0.18231112
, 1.5739725
Ġwhich 1.4964595
Ġis 1.7169629
Ġto 1.8100747
Ġbe 3.349034
Ġfair 0.85418767
Ġto 1.5155164
Ġthe 0.9026324
Ġpatient 0.27223754
. 1.0205573
ĠDisplay 11.139259
ing 0.013727673
Ġjustice 6.922317
Ġwould 2.0077171
Ġindicate 5.98197
Ġcare 6.9835377
Ġto 2.8131688
Ġthe 0.6671855
Ġvictim 6.45769
Ġhence 11.528819
Ġenhancing 3.4178069
Ġhis 1.4080037
Ġemotional 6.296193
Ġstrength 5.756093
Ġtowards 6.5780616
Ġthe 1.4159329
Ġservices 7.4370685
Ġhe 2.6550543
Ġis 2.403652
Ġreceiving 0.63947076
Ġwithin 8.234435
Ġthe 0.90439963
Ġfacility 3.9713678
. 0.21407637
Ċ 0.4248247
Bel 9.65793
ief 3.573354
s 0.56331795
Ġand 1.2161039
ĠValues 1.3905246
Ċ 0.18005891
Generally 7.0192685
, 0.15467452
Ġpersonal 8.110909
Ġbeliefs 0.65943265
Ġand 0.7347693
Ġvalues 0.16253069
Ġplay 3.0143044
Ġa 0.627787
Ġvital 2.2181764
Ġrole 0.05019099
Ġin 0.12348983
Ġinfluencing 5.3837256
Ġethical 4.517606
Ġpractice 2.3827548
Ġin 2.38479
Ġthe 1.4699732
Ġwork 3.3330905
Ġsetting 3.67945
. 0.2172661
ĠEducation 9.786048
, 2.4861135
Ġpast 8.19826
Ġexperience 1.1017259
, 0.10058077
Ġand 0.47986332
Ġculture 5.6831274
Ġare 1.3958452
Ġkey 3.8059983
Ġfactors 0.5571548
Ġthat 0.97087526
Ġsignificantly 8.208469
Ġdetermine 4.537513
Ġhow 2.3428717
Ġan 3.0200884
Ġindividual 0.02550045
Ġportrays 9.260235
Ġmoral 4.2536964
Ġbehaviors 4.7997313
Ġ( 1.9393423
S 3.8555725
ari 7.359928
Ġet 1.2314793
Ġal 0.00094042
., 0.053055514
Ġ2018 2.2751365
). 0.06852185
ĠI 4.2390494
Ġbelieve 1.5197344
Ġin 3.1612992
Ġthe 1.1417121
Ġprovision 7.7353067
Ġof 0.028248666
Ġcare 3.1047976
Ġfor 2.2334862
Ġpeople 3.7326992
Ġin 2.7884817
Ġneed 1.5947272
, 1.2214534
Ġand 0.9445033
Ġthe 2.7531097
Ġconcept 5.494945
Ġhas 6.0779047
Ġbeen 1.1609637
Ġof 7.0976553
Ġgreat 1.624209
Ġhelp 1.9963664
Ġwhen 5.1558332
Ġit 1.8801494
Ġcomes 0.084075406
Ġto 0.0068525528
Ġsolving 6.2641363
Ġdile 6.1434097
mm 0.004568004
as 0.0006918437
. 1.6083524
ĠAccording 3.801268
Ġto 0.0032226122
ĠMr 3.8746545
. 0.0018402722
ĠNew 0.16231635
comb 0.003221774
bytes:\xe2\x80 1.5793946
bytes:\x99 0.010017052
s 0.0005695159
Ġscenario 7.3706045
, 0.06088438
Ġmy 3.5321133
Ġdecision 3.137036
Ġwas 2.3519893
Ġgreatly 9.525266
Ġinfluenced 0.8027672
Ġby 0.0645111
Ġthe 1.4874824
Ġvalue 3.9357839
Ġof 0.83464324
Ġcaring 3.808093
, 2.915801
Ġwhich 2.1912344
Ġprompted 6.354137
Ġme 0.13945228
Ġto 0.020626426
Ġdo 4.97128
Ġwhat 1.7793111
Ġwas 1.032785
Ġpossible 5.960602
Ġto 0.76031834
Ġhelp 2.2809744
Ġhim 0.5454077
Ġrelieve 6.3776407
Ġthe 1.716892
Ġconstant 8.471608
Ġpain 0.41411996
. 1.6966255
ĠBased 3.8036954
Ġon 0.009363864
Ġmy 1.6997597
Ġnursing 8.807109
Ġexperience 1.5267797
, 0.252695
Ġif 5.65822
Ġyou 4.7714424
Ġprevent 9.05849
Ġpatients 4.1041718
Ġfrom 0.21891706
Ġwhat 9.601705
Ġthey 0.59727013
Ġwish 3.899274
Ġto 1.4632665
Ġhave 2.515096
, 0.4912998
Ġthey 2.8504348
Ġbecome 4.384738
Ġdepressed 3.791743
Ġand 0.7286466
Ġlose 4.036381
Ġtrust 4.7742257
Ġin 0.20545943
Ġthe 1.5944494
Ġcare 1.8881184
Ġprovider 2.0846949
. 0.6287513
ĠTherefore 1.6497055
, 0.012111545
Ġapart 11.148339
Ġfrom 0.012039331
Ġthe 1.3154923
Ġprinciples 4.2958584
Ġof 0.16818027
Ġethical 6.645358
Ġconduct 3.4395413
, 0.6331029
Ġmy 3.8972077
Ġbeliefs 3.450554
Ġand 0.7698371
Ġvalues 0.06650053
Ġwould 2.6873085
Ġform 4.694876
Ġpart 3.9107974
Ġof 0.011015024
Ġthe 1.0295182
Ġdecision 2.0843315
ĠI 2.69422
Ġmake 2.2688086
Ġabout 3.1900935
Ġa 3.164572
Ġpatient 0.43570754
bytes:\xe2\x80 0.46171415
bytes:\x99 0.0031308855
s 0.00047964763
Ġwelfare 3.3888025
. 0.33486435
Ċ 0.5012129
Str 6.597967
ateg 0.89090365
ies 0.006706006
Ġfor 1.2102046
ĠProm 6.4090676
oting 0.039671227
ĠSelf 5.271414
- 0.07426672
Care 3.0575752
Ċ 0.50139093
Generally 7.2525992
, 0.112196185
Ġnurses 2.680755
Ġengage 5.827855
Ġin 0.13379905
Ġdifferent 4.5908895
Ġactivities 2.0205426
Ġto 1.3204031
Ġensure 2.6511676
Ġpatients 2.849115
Ġreceive 2.4650867
Ġthe 1.0078644
Ġbest 0.7814746
Ġcare 0.65946966
Ġservices 5.723709
Ġwithin 5.093804
Ġthe 0.45709297
Ġfacility 1.4428064
. 0.2747966
ĠIt 3.760818
Ġis 0.29164332
Ġtheir 6.94119
Ġresponsibility 1.6178377
Ġto 0.055884283
Ġensure 1.6012934
Ġsick 8.820232
Ġindividuals 2.232057
bytes:\xe2\x80 3.9365685
bytes:\x99 0.001509568
Ġwell 3.3321497
- 0.08872518
being 0.0010802733
Ġis 2.3387642
Ġachieved 4.528226
. 1.2283523
ĠTheir 5.3088446
Ġduty 3.898581
Ġrequires 4.325779
Ġmaximum 10.962061
Ġconcentration 6.498246
Ġand 1.1893787
Ġfocus 3.354248
Ġon 1.3238544
Ġensuring 4.186679
Ġthey 3.0223722
Ġdeliver 4.459038
Ġoptimal 3.3763998
Ġcare 0.5546382
Ġto 1.1839935
Ġpatients 1.6687472
. 0.60969615
ĠThey 2.9447312
, 6.9942
Ġtherefore 0.8018239
, 0.009141577
Ġneed 1.1792
Ġproper 6.927856
Ġstrategies 1.7258977
Ġto 0.5628113
Ġenable 5.1740184
Ġthem 0.2184038
Ġto 0.17597246
Ġimprove 4.1478024
Ġpatients 4.852112
bytes:\xe2\x80 0.135619
bytes:\x99 0.0025212516
Ġself 2.9536893
- 0.007199014
care 0.17433889
Ġto 4.59743
Ġenhance 3.0358489
Ġthe 2.0276613
Ġquality 0.98991627
Ġand 3.5530272
Ġsafety 2.7465856
Ġof 0.044475783
Ġtheir 0.7137517
Ġhealth 3.9994001
Ġ( 5.4409313
W 4.3053303
ang 1.6149235
Ġet 0.60976404
Ġal 0.0011878634
., 0.0059130453
Ġ2019 3.266198
). 0.040513873
ĠThe 2.46889
Ġpractice 3.7619858
Ġallows 7.498729
Ġpatients 1.9527587
Ġto 0.10078149
Ġhave 3.2915068
Ġgood 5.529209
Ġphysical 4.9689655
Ġand 0.51504046
Ġmental 0.53451407
Ġhealth 0.14187142
Ġwhile 2.6183639
Ġundergoing 6.264677
Ġmedication 6.9071507
Ġto 3.5619624
Ġenable 4.9934506
Ġthem 0.2120536
Ġto 0.35274705
Ġovercome 6.083929
Ġthe 1.3752645
Ġstress 3.1046433
Ġand 1.8215159
Ġpain 1.0380422
Ġof 2.1629248
Ġthe 1.787786
Ġdisease 1.2810588
. 0.52273905
ĠSome 5.8461223
Ġtechniques 5.0341306
, 3.7371314
Ġsuch 0.56615406
Ġas 0.0029057944
Ġregular 5.4722805
Ġexercise 1.6732296
, 0.5174828
Ġmaintaining 6.1492867
Ġfriends 9.316894
, 1.2654315
Ġand 0.4625506
Ġhealthy 5.431235
Ġeating 2.06249
Ġhabits 1.6679181
, 0.5787456
Ġfacilitate 4.954122
Ġself 1.9609196
- 0.02400429
care 0.0687292
Ġamong 6.248784
Ġpatients 0.56262827
. 0.6329761
Ċ 1.640783
Pract 3.9816592
icing 2.3790727
ĠHealthy 6.5130367
ĠEating 0.93868107
ĠHabit 6.4968424
Ċ 0.22498573
Different 7.370552
Ġcategories 7.1064715
Ġof 0.08956928
Ġmeals 5.1778164
Ġpatients 11.05069
Ġconsume 2.1121206
Ġhave 3.3429484
Ġimpacts 6.9012156
Ġon 0.06477546
Ġtheir 0.49479362
Ġhealth 0.437213
. 0.720249
ĠNurs 8.269204
es 0.00075047655
Ġshould 1.728802
Ġensure 2.6192987
Ġa 4.882742
Ġsick 8.597392
Ġperson 0.74461406
Ġhas 2.5205183
Ġa 1.4851822
Ġproper 3.4236639
Ġbalance 5.3403263
Ġdiet 4.5134745
Ġto 1.8314679
Ġhelp 3.792407
Ġbuild 7.3879905
Ġtheir 1.6571883
Ġimmune 2.4189146
Ġsystem 0.15906793
. 1.4842737
ĠThey 2.7841456
Ġshould 0.4366929
Ġalso 1.0895227
Ġmake 3.7589579
Ġsure 0.44133398
Ġsu 9.9888
gary 0.10477113
Ġfoods 1.9289877
Ġare 0.61545086
Ġnot 0.8706211
Ġgiven 3.5072844
Ġto 0.24226283
Ġthe 1.3902752
Ġpatient 0.4484222
Ġbecause 3.6631858
Ġof 1.8020127
Ġtheir 1.0122736
Ġadverse 7.7918277
Ġeffects 0.7704678
. 1.3679684
ĠHealthy 4.1210065
Ġeating 0.37632775
Ġhabits 0.2142061
Ġwould 3.5377676
Ġallow 2.8507795
Ġpatients 1.3870525
Ġto 0.06723753
Ġhave 3.0772357
Ġenough 4.9571023
Ġenergy 0.8943297
Ġnecessary 6.852194
Ġfor 0.7429443
Ġtheir 1.3124542
Ġphysical 2.6567786
Ġfitness 4.095771
. 1.1520202
ĠCare 6.6412897
g 0.09963091
ivers 0.025599327
Ġshould 0.77432644
Ġencourage 3.1914172
Ġpatients 0.8174176
Ġto 0.06309427
Ġconsume 3.277853
Ġfood 4.8335795
st 7.5126557
uffs 0.0017877847
Ġthat 0.49720052
Ġwould 3.3417518
Ġhelp 1.7925596
Ġthem 0.8682677
Ġhave 4.801279
Ġbetter 3.6389382
Ġgrowth 6.9485636
. 2.9265077
Ċ 1.7217064
Regular 7.146828
ĠExercise 4.606949
Ċ 0.21698995
Pract 5.985251
icing 0.15487547
Ġregular 1.9744009
Ġphysical 3.2723176
Ġexercise 0.82948714
Ġis 1.7101065
Ġessential 2.3915598
Ġfor 0.6680774
Ġthe 1.9578409
Ġhealth 0.8185337
Ġof 0.23182991
Ġa 2.402128
Ġpatient 1.1984109
. 0.31411856
ĠNurs 3.712588
es 0.00064848276
Ġshould 0.69847065
Ġadvise 6.069649
Ġsick 3.395978
Ġindividuals 2.1454551
Ġto 0.34522644
Ġhave 3.6835225
Ġa 2.085819
Ġplanned 8.532779
Ġroutine 3.6486533
Ġfor 2.4120073
Ġengaging 6.778818
Ġin 0.072928436
Ġbodily 7.6218553
Ġactivities 1.0577377
. 0.95355606
ĠThe 2.891078
Ġpractice 1.5302397
Ġwould 1.8028802
Ġensure 2.3500562
Ġpatients 1.6478684
Ġreduce 7.7565103
Ġanxiety 6.909787
, 2.285665
Ġdepression 2.7963724
, 0.030684173
Ġand 0.2891532
Ġtrauma 7.4426646
Ġcaused 3.736008
Ġby 0.12676983
Ġthe 1.3240646
Ġdisorder 5.3327456
. 0.67520857
ĠFurthermore 5.281549
, 0.0021686382
Ġduring 6.119274
Ġthe 1.14989
Ġexercises 6.2618337
, 0.17965741
Ġpatients 1.2868639
Ġwould 1.2970307
Ġfeel 2.7163808
Ġengaged 6.3224635
, 2.1860335
Ġthus 6.8578105
Ġincreasing 2.6106877
Ġtheir 0.32584378
Ġconcentration 6.293697
Ġand 0.83725333
Ġhappiness 6.4630313
. 0.59326804
ĠImplement 8.732958
ing 0.016919155
Ġsimple 7.3298054
Ġworkouts 6.2134967
Ġwould 1.5556358
Ġkeep 4.5268774
Ġtheir 3.2457705
Ġbodies 2.9730787
Ġfit 2.0794847
Ġand 0.5747273
Ġstrong 4.6549478
Ġto 2.4701226
Ġwithstand 4.820187
Ġthe 0.5553579
Ġagony 7.0626388
Ġof 0.42057955
Ġthe 1.2777809
Ġillness 1.813634
. 0.24663228
Ċ 0.59181976
M 3.172183
aint 0.19859436
aining 0.00052675663
ĠFriends 0.22329544
hips 2.5520048
Ċ 0.062869616
S 5.078205
ick 0.3940833
Ġpersons 2.6973774
Ġrequire 3.150824
Ġa 1.9489979
Ġhigh 5.4457593
Ġsense 7.130217
Ġof 0.0018766994
Ġbelonging 3.2191243
Ġto 1.4835504
Ġmake 3.893829
Ġthem 1.1390278
Ġfeel 0.32626116
Ġloved 3.7696638
Ġhence 12.952914
Ġeliminating 8.225691
Ġstigmat 9.309302
ization 0.2820767
. 0.74308866
ĠNurs 2.0783663
es 0.0005646284
Ġshould 0.5545709
Ġencourage 1.7030756
Ġpatients 0.8231449
Ġto 0.039962728
Ġinteract 5.1893497
Ġwith 0.22213775
Ġtheir 0.9666284
Ġloved 3.4969168
Ġones 0.03872548
Ġfrequently 6.5157685
Ġto 1.9220575
Ġensure 2.9490106
Ġthey 0.9024839
Ġfeel 1.3912923
Ġpart 4.8857255
Ġof 0.0037478306
Ġthem 5.6133275
Ġirrespective 7.250918
Ġof 0.009374454
Ġtheir 0.32119802
Ġhealth 2.3322744
Ġcondition 1.3610691
. 0.15514237
ĠFurthermore 4.622227
, 0.0018463631
Ġhaving 4.9209948
Ġa 1.2027549
Ġclose 1.6057721
Ġconnection 4.6864448
Ġwould 2.7212274
Ġlower 6.920961
Ġstress 2.217781
Ġlevels 1.938808
Ġand 1.0466847
Ġmake 3.0468996
Ġthem 1.6257563
Ġbecome 7.914075
Ġstrong 6.9915123
Ġand 1.5264958
Ġhappy 3.7614496
. 0.50546116
ĠThe 3.6407096
Ġpractice 0.14138831
Ġwould 0.9723728
Ġmake 3.7124426
Ġpatients 1.4499652
Ġfeel 0.2757928
Ġfree 5.419266
Ġand 2.3949568
Ġremain 9.439061
Ġdetermined 7.185135
Ġthroughout 4.894424
Ġthe 1.3510468
Ġprovision 11.674964
Ġof 0.015082122
Ġcare 0.63022876
Ġservices 3.3676324
. 0.364295
Ċ 0.39572263
Conclusion 3.7964334
Ċ 0.0549078
In 1.4863942
Ġsummary 4.3117747
, 0.014256745
Ġit 4.0735893
Ġis 0.45236218
Ġessential 3.2421865
Ġfor 0.8970923
Ġnurses 1.0304146
Ġto 0.06826189
Ġembrace 5.8649855
Ġethics 5.0912848
Ġin 1.6139635
Ġtheir 0.87757206
Ġwork 1.0903164
Ġto 3.0381649
Ġensure 0.9890347
Ġthey 1.3110815
Ġdeliver 3.995226
Ġthe 1.5810099
Ġbest 0.32262835
Ġcare 1.1301107
Ġservices 1.203342
Ġto 0.63181007
Ġthe 1.6691453
Ġpatients 1.0754033
. 0.7092434
ĠSuch 4.9236913
Ġprinciples 3.8964276
Ġas 6.5571065
Ġbenefic 0.44082895
ence 0.0027781148
, 0.087440774
Ġnon 0.24312668
- 0.028342662
mal 0.00051900244
ef 0.002688224
ic 0.004093103
ence 0.0024361657
, 0.015730152
Ġautonomy 0.49737635
, 0.059713468
Ġand 0.27458608
Ġjustice 0.00868098
Ġare 1.5622671
Ġcritical 4.3701615
Ġin 1.3820963
Ġhelping 3.8457117
Ġcare 4.667712
Ġproviders 0.6265674
Ġmake 3.8034585
Ġsound 0.780429
Ġdecisions 0.46093813
Ġwhen 3.1055284
Ġfaced 3.472146
Ġwith 0.007310625
Ġa 2.262147
Ġdilemma 4.5369315
. 0.4742479
ĠTherefore 3.8479857
, 0.013315213
Ġit 2.5690913
Ġis 0.17166765
Ġimportant 1.682747
Ġfor 0.9126864
Ġpractitioners 5.5698633
Ġto 0.082710445
Ġadhere 3.211796
Ġto 0.027958455
Ġthe 0.93668705
Ġpractices 4.599907
Ġto 3.3809483
Ġenable 4.886182
Ġthem 0.6686296
Ġto 0.18990168
Ġwork 4.9160056
Ġwithin 3.5314562
Ġthe 0.33082345
Ġlaws 1.8936481
Ġthat 1.2025862
Ġgovern 0.09816646
Ġnursing 4.4311604
. 0.7001089
ĠIn 3.115632
Ġaddition 2.4092517
, 0.2435357
Ġfollowing 5.841905
Ġnumerous 11.377703
Ġactivities 6.3776593
Ġthat 1.9603441
Ġhealth 9.501266
Ġproviders 3.6148498
Ġperform 2.9926379
, 1.2002566
Ġthey 1.775214
Ġrequire 6.419296
Ġproper 2.9230573
Ġstrategies 0.2709859
Ġto 0.37405223
Ġhelp 2.9560318
Ġthem 0.33718082
Ġimprove 1.684588
Ġtheir 0.5768127
Ġself 3.476697
- 0.021362454
care 0.018721847
. 1.105622
ĠSuch 4.5793357
Ġapproaches 4.847525
Ġas 6.1629934
Ġhealthy 3.9382343
Ġeating 0.12627243
Ġhabits 0.37975395
, 0.2634265
Ġmaintaining 5.4747553
Ġa 3.6784644
Ġfriendship 4.669812
, 0.2373607
Ġand 0.33322185
Ġphysical 4.9305105
Ġexercise 0.8184666
Ġare 1.6311098
Ġvital 3.9212446
Ġin 1.8653527
Ġenhancing 3.3533206
Ġpatients 2.022664
bytes:\xe2\x80 0.07844177
bytes:\x99 0.0073066023
Ġself 0.56762505
- 0.011269557
care 0.02748317
. 0.6779835
