A 3.5246186
Ġdisaster 10.531224
Ġprepared 3.8406477
ness 0.0006957804
Ġplan 2.0501413
Ġstarts 5.812063
Ġwith 0.20564444
Ġan 2.3904047
Ġemergency 1.4169856
Ġprepared 3.3923628
ness 0.0011727642
Ġkit 0.20289174
Ġthat 2.7306733
Ġmust 5.9169292
Ġnecessarily 10.301181
Ġinclude 0.97792035
Ġdrinking 5.661036
Ġwater 0.009109636
Ġfor 3.3858995
Ġeach 1.8669269
Ġperson 1.8043065
, 2.7721188
Ġa 2.8001919
Ġsupply 3.05755
Ġof 0.040736537
Ġfood 0.8239922
Ġfor 2.3871684
Ġseveral 2.6870832
Ġdays 0.027269317
, 0.32792425
Ġa 1.6580261
Ġradio 2.647844
Ġreceiver 4.704223
Ġfor 3.116475
Ġlistening 2.968181
Ġto 0.09686113
Ġinformation 2.9900527
. 6.681212
ĠMoreover 6.250466
, 0.11372169
Ġit 1.5016121
Ġis 0.43331152
Ġimportant 1.8140373
Ġto 0.109980345
Ġhave 0.89966464
Ġa 0.9000667
Ġflashlight 2.226525
Ġand 1.5883123
Ġextra 3.4909172
Ġbatteries 0.025844134
Ġin 3.2365482
Ġcase 0.82109094
Ġof 0.45018163
Ġa 1.2545806
Ġlong 4.736236
Ġstay 4.9405813
Ġin 0.9683451
Ġan 3.576656
Ġemergency 0.5403798
. 2.434249
ĠAdditionally 7.3071337
, 0.07222954
Ġthe 3.088534
Ġkit 0.74278176
Ġshould 1.207279
Ġinclude 0.79782665
Ġa 1.102571
Ġdust 7.9369636
Ġmask 0.04083209
Ġand 1.5742375
Ġa 1.0332204
Ġwhistle 2.1089675
Ġthat 3.0098596
Ġcan 0.8650725
Ġbe 0.32878783
Ġused 0.33396614
Ġas 2.8414898
Ġan 1.7700908
Ġalert 2.5938325
Ġor 4.160427
Ġhelp 5.074555
Ġsignal 1.13504
. 0.567675
ĠIf 3.745231
Ġit 3.1915257
Ġis 0.17451672
Ġnot 2.7269025
Ġpossible 0.29226676
Ġto 0.048874836
Ġturn 6.357511
Ġoff 0.69573265
Ġutilities 5.4233217
, 0.7447402
Ġit 1.1989238
Ġis 0.13342467
Ġessential 3.0656564
Ġto 0.072965816
Ġput 4.83126
Ġpl 8.39135
iers 1.8595867
Ġand 1.2727909
Ġa 0.6922942
Ġcan 7.332088
Ġopener 0.5868324
Ġin 0.44681805
Ġorder 4.911437
Ġto 0.023096312
Ġopen 1.602302
Ġthe 1.8135155
Ġfood 4.111498
. 2.0687149
Ċ 1.4716191
When 12.17817
Ġpreparing 3.0514476
Ġfor 1.7059307
Ġan 1.1434345
Ġemergency 0.31230164
, 0.41548443
Ġthere 4.155472
Ġare 0.4031376
Ġmany 2.444519
Ġother 2.5967188
Ġfactors 2.9428113
Ġthat 1.2137407
Ġinfluence 6.048931
Ġaction 8.718787
. 1.0815518
ĠThere 4.595519
Ġis 1.1849422
Ġa 1.2620709
Ġparalyzed 14.204039
Ġperson 1.607878
Ġin 2.0863519
Ġthe 0.25506672
Ġfamily 1.9078565
, 0.90167135
Ġso 4.7945933
Ġit 1.3263566
Ġis 0.21778789
Ġcritical 6.7146583
Ġto 0.1320291
Ġhave 0.8224732
Ġa 0.6836532
Ġstret 3.5331302
cher 0.0001941635
Ġin 2.7873435
Ġcase 2.3247395
Ġyou 2.9951286
Ġhave 0.99966085
Ġto 0.014685136
Ġleave 2.9574063
Ġthe 0.44136116
Ġhouse 0.33617973
. 0.81819415
ĠIf 1.9306291
Ġcircumstances 10.709906
Ġdo 2.8828728
Ġnot 0.012900205
Ġallow 0.17694551
Ġthe 2.6822863
Ġuse 1.3459985
Ġof 0.0053566075
Ġa 0.8067284
Ġstret 0.72552145
cher 5.4552278e-05
, 0.1060089
Ġspecial 7.5216746
Ġband 5.825455
ages 0.033974536
Ġare 2.1624448
Ġneeded 1.9615635
Ġin 2.861161
Ġorder 0.39140424
Ġto 0.026899727
Ġcarry 2.38689
Ġa 1.2789587
Ġperson 0.61697793
Ġon 2.123998
Ġtheir 3.0289328
Ġback 0.3560157
. 0.2259736
ĠMoreover 4.350843
, 0.005390882
Ġthe 2.5051358
Ġpackage 6.216921
Ġshould 0.6901143
Ġinclude 0.58038485
Ġall 5.514148
Ġfirst 5.1303077
Ġaid 0.15255585
Ġsupplies 1.8638742
Ġsuch 2.6781144
Ġas 0.012627389
Ġband 0.9555747
ages 0.10803371
, 0.22108296
Ġpain 3.8387375
killers 0.4286551
, 0.29719803
Ġand 2.684156
Ġwound 5.185363
Ġdress 1.4152962
ings 0.0008771812
. 0.16011858
ĠIn 2.771617
Ġthis 4.225459
Ġcase 0.835146
, 0.10363234
Ġhelp 8.299371
Ġcan 2.0201304
Ġbe 0.63579315
Ġprovided 1.9774247
Ġin 3.0966384
Ġthe 0.98138964
Ġevent 2.143045
Ġof 0.10220999
Ġinjuries 3.2525122
Ġof 4.774437
Ġvarying 4.1417184
Ġdegrees 2.3752387
. 0.8420737
ĠOne 6.2819724
Ġfamily 7.5976105
Ġmember 0.2673664
Ġhas 1.6668386
Ġasthma 2.7783813
, 0.51603395
Ġso 0.5577325
Ġseveral 8.179077
Ġinhal 0.61740595
ers 0.022946395
Ġare 1.1814903
Ġprepared 8.149642
Ġin 1.2619748
Ġthe 0.97951496
Ġkit 1.0778557
. 0.25136673
ĠIf 2.104132
Ġthey 5.506647
Ġbreak 7.065218
, 0.52276534
Ġthen 3.6336715
Ġit 1.7018954
Ġis 0.24732237
Ġnecessary 0.7748195
Ġto 0.018889476
Ġuse 4.3105965
Ġbaking 7.778147
Ġsoda 0.0125579145
Ġduring 8.752583
Ġan 1.4956409
Ġattack 1.2478851
Ġof 2.3774443
Ġillness 7.8619723
. 0.2514013
Ġ1 12.220242
Ġtablespoon 4.284681
Ġof 0.24362771
Ġsoda 1.1690193
Ġis 1.6301832
Ġadded 2.168366
Ġto 0.06874848
Ġ1 1.894061
Ġliter 1.2154802
Ġof 0.016272655
Ġwater 0.28572887
; 5.892965
Ġthe 1.2873094
Ġvap 9.276552
ors 0.007817625
Ġneed 8.21036
Ġto 0.010210389
Ġbe 0.08737006
Ġinh 0.20827417
aled 0.0002905667
Ġfor 2.7455432
Ġ5 2.2024302
- 0.44809467
7 1.4491043
Ġminutes 0.043923877
. 0.2967215
ĠSuch 6.386141
Ġalk 8.640922
aline 0.31164002
Ġinhal 4.229739
ations 1.7208782
Ġhelp 1.9428451
Ġclear 5.9618063
Ġthe 0.2019786
Ġbron 1.4053932
chi 0.26170084
, 2.3943892
Ġremove 3.5931334
Ġph 2.8131387
leg 0.00018748498
m 0.0014018249
Ġand 0.82573223
Ġrelieve 2.99093
Ġinflammation 3.6400723
Ġwhen 8.013071
Ġcoughing 3.0986993
. 0.1389625
Ċ 0.8286884
Additionally 5.771657
, 0.012932929
Ġit 1.6062839
Ġis 0.043781016
Ġnecessary 1.1325651
Ġnot 6.711061
Ġto 0.21454208
Ġpanic 6.643414
, 2.1252227
Ġas 3.785965
Ġcalm 6.027871
ness 0.8411275
Ġis 1.5517902
Ġthe 1.3139678
Ġboundary 14.145991
Ġbetween 0.28185877
Ġlife 0.101002954
Ġand 0.0060660094
Ġdeath 0.0058232313
. 0.36797082
ĠWith 6.062265
Ġthe 1.5771627
Ġloss 5.629009
Ġof 0.003934813
Ġcalm 3.9533904
ness 1.1646192
Ġand 3.1192408
Ġpeace 4.9773374
Ġof 0.5501104
Ġmind 0.043095008
, 0.13313755
Ġa 2.250053
Ġperson 0.06602988
Ġbegins 3.5193145
Ġto 0.014793351
Ġcommit 7.115458
Ġrash 5.312617
Ġacts 0.7467725
Ġthat 0.9550801
Ġcan 1.0948247
Ġlead 0.8962274
Ġto 0.02715423
Ġdeath 2.2157247
Ġ( 5.960089
Ar 11.623185
uru 12.314575
Ġet 2.7592666
Ġal 0.031390794
., 0.43966487
Ġ2021 11.495139
). 0.1371925
ĠThe 2.998479
Ġimplementation 7.959309
Ġof 0.009480411
Ġthe 1.7155222
Ġplan 2.3471673
Ġshould 2.9575365
Ġbegin 2.2994134
Ġby 3.44308
Ġchecking 3.7877507
Ġthe 0.580556
Ġsupply 5.1980867
Ġof 0.15793955
Ġwater 2.0539362
Ġand 1.167386
Ġfood 0.23029791
. 1.1185211
ĠMoreover 4.938778
, 0.001705207
ĠI 8.247526
Ġneed 2.954381
Ġto 0.04004933
Ġmake 2.6801846
Ġsure 0.24219652
Ġthat 0.10279014
Ġall 1.883072
Ġmembers 2.2561557
Ġof 0.0804572
Ġthe 0.048370536
Ġfamily 0.050412256
Ġare 1.1095535
Ġintact 8.342579
. 1.1268206
ĠAfter 3.1170433
Ġthat 0.65822077
, 0.06448103
ĠI 1.2068068
Ġwill 2.422636
Ġturn 2.0534468
Ġon 0.6513624
Ġthe 0.1129479
Ġradio 0.15327482
Ġand 0.86670387
Ġlisten 0.98640835
Ġto 0.10421854
Ġmessages 5.456241
Ġfrom 1.7363986
Ġthe 0.50871086
Ġrescue 4.1825156
Ġservices 1.1083634
. 0.37547398
ĠIn 2.6487563
Ġthe 0.9812477
Ġabsence 2.496094
Ġof 0.0025941574
Ġcommunication 5.0157785
, 0.8399254
Ġit 1.6364007
Ġis 0.1781677
Ġimportant 2.6046908
Ġto 0.054816373
Ġremain 5.084428
Ġcalm 0.6413918
Ġand 0.4976169
Ġgive 6.795351
Ġdistress 11.067259
Ġsignals 0.10551809
Ġwith 2.4459317
Ġa 0.5545388
Ġwhistle 0.3403877
. 1.2177219
ĠThe 2.8546371
Ġsuccess 7.7299137
Ġof 0.03729984
Ġthe 0.7388181
Ġplan 1.0252371
Ġshould 5.437724
Ġbe 0.37173024
Ġjudged 4.035527
Ġaccording 3.5705166
Ġto 0.004504294
Ġthe 0.34912318
Ġlevel 3.350518
Ġof 0.0117048165
Ġcalm 2.7381687
ness 0.09000824
Ġand 0.8625061
Ġreadiness 3.837889
Ġfor 1.2590276
Ġdifferent 7.702583
Ġcircumstances 3.534464
. 0.16488726
