The 2.598347
ĠHarvest 10.459108
Ġ 9.297811
Ċ 5.0113587
Ċ 0.37680754
Jake 11.204169
Ġtossed 11.945148
Ġand 4.1973476
Ġturned 1.592747
Ġin 1.5288924
Ġhis 0.93325245
Ġbed 0.6047453
, 1.0331914
Ġunable 2.9397047
Ġto 0.0047221403
Ġsleep 0.82679003
. 0.4531029
ĠHis 2.3096595
Ġmind 2.1351614
Ġwas 1.0477991
Ġracing 2.141378
Ġwith 1.871646
Ġworries 5.551473
Ġand 1.8781116
Ġanx 5.3151793
ieties 0.0017056847
Ġabout 2.410279
Ġhis 1.7635441
Ġjob 3.7028348
, 1.7649839
Ġhis 1.0784836
Ġrelationships 5.6095295
, 0.42408875
Ġhis 0.9283297
Ġun 8.27124
ful 1.3807666
f 2.7409642
illing 0.013542778
Ġlife 2.3274915
. 0.84321153
ĠAs 4.2281146
Ġhis 2.7295039
Ġrestless 5.4056077
Ġmind 1.1901945
Ġjumped 7.410049
Ġfrom 1.1139132
Ġone 0.7417473
Ġconcern 4.327013
Ġto 0.02718516
Ġthe 1.0023069
Ġnext 0.06516753
, 0.14329752
Ġa 3.297122
Ġstrange 3.2639844
Ġfeeling 1.3352662
Ġcrept 3.114732
Ġover 1.5815504
Ġhim 0.4378235
. 0.5208565
ĠA 3.191826
Ġfeeling 1.190739
Ġthat 0.843735
Ġhis 3.7886221
Ġstruggles 9.021141
Ġand 2.5323055
Ġsuffering 5.04888
Ġwere 0.93072486
Ġsomehow 2.4433546
Ġbeing 3.1514902
Ġcultivated 11.684024
Ġand 2.241784
Ġfed 3.3649952
Ġupon 4.7249994
Ġby 0.2930689
Ġsinister 8.730131
Ġforces 0.51614314
. 0.6830725
Ġ 3.4581861
Ċ 0.048285898
Ċ 0.23402508
He 1.7740011
Ġshook 5.717673
Ġoff 3.5184793
Ġthe 0.5360419
Ġbizarre 5.766143
Ġthought 2.3618798
Ġand 0.72078824
Ġglanced 5.8013268
Ġat 0.6807968
Ġthe 0.4366018
Ġclock 0.57176197
. 0.6590524
Ġ3 4.8664722
: 0.34976524
33 4.529939
Ġam 1.8163624
. 0.20519926
ĠThe 2.9547725
Ġwitch 8.308842
ing 1.6407202
Ġhour 0.08886457
. 0.69922525
ĠJake 3.2416954
Ġdidn 4.953934
't 0.23934999
Ġactually 7.6355815
Ġbelieve 2.7138252
Ġin 0.44138208
Ġsuch 3.2432475
Ġsuperst 4.4547834
itions 0.45649958
, 0.52034974
Ġbut 0.13093518
Ġthe 2.7142997
Ġtiming 5.6886787
Ġseemed 2.818636
Ġoddly 4.7945123
Ġfitting 2.1211264
Ġfor 2.5368888
Ġhis 2.326328
Ġstrange 5.5318937
Ġintuition 8.699066
. 0.38415584
Ċ 1.7456164
Ċ 0.024718361
His 3.0853684
Ġcat 6.434684
, 1.4280965
ĠSim 8.653068
ba 0.54331076
, 0.14049123
Ġsuddenly 4.5591507
Ġawoke 4.661815
Ġwith 3.3557117
Ġa 0.19408657
Ġstart 2.41354
Ġand 1.3583797
Ġleapt 4.005794
Ġoff 2.5525255
Ġthe 0.5642452
Ġbed 0.09396372
. 1.0060871
ĠThe 2.7071292
Ġhair 8.731314
Ġon 1.0378405
ĠSim 4.104351
ba 0.0033249296
's 0.010036439
Ġback 0.9852149
Ġwas 2.6270638
Ġstanding 1.1085826
Ġup 1.4323739
Ġas 2.6962922
Ġhe 1.2521673
Ġstared 3.5977707
Ġint 5.516866
ently 0.0005517445
Ġout 4.873766
Ġthe 0.33189183
Ġopen 5.0520997
Ġbedroom 3.2160854
Ġdoor 1.414743
Ġinto 4.317554
Ġthe 0.1308514
Ġdarkness 3.190948
Ġof 1.837908
Ġthe 0.33062738
Ġhallway 4.2380733
. 0.12011025
ĠA 4.1969247
Ġchill 3.6227112
Ġran 1.1636463
Ġdown 0.60641295
ĠJake 0.27259976
's 0.01079442
Ġspine 0.12940559
. 1.2795968
ĠHe 1.6649798
Ġhad 2.8901122
Ġnever 1.9838414
Ġseen 0.9414158
ĠSim 1.1282088
ba 0.00034142847
Ġact 4.4811406
Ġthis 1.7762128
Ġway 0.33069625
Ġbefore 0.47566032
. 0.29943436
ĠThe 2.526428
Ġcat 0.5348937
Ġhis 7.1306767
sed 0.014079971
Ġloudly 4.330481
, 1.6780317
Ġthen 2.2977111
Ġd 4.6898494
arted 0.032081157
Ġunder 5.1090097
Ġthe 0.113411605
Ġbed 0.27983606
Ġto 2.3611655
Ġhide 1.2759863
. 1.7426969
Ċ 0.60531646
Ċ 0.0059324703
Jake 0.7927159
Ġheard 4.8312325
Ġsoft 5.3568816
Ġwhispers 5.852868
Ġcoming 2.0513506
Ġfrom 0.059422012
Ġthe 0.53392214
Ġhallway 2.6633632
. 0.7025662
ĠHe 1.2058238
Ġstrained 4.689296
Ġto 1.0799612
Ġmake 3.4926527
Ġout 0.056670353
Ġwhat 1.7707002
Ġthe 2.5009236
Ġhus 6.783216
hed 0.04638289
Ġvoices 0.6843494
Ġwere 0.23567897
Ġsaying 0.3585423
, 1.0822418
Ġbut 0.17890555
Ġcould 3.1885011
Ġonly 0.92246276
Ġcatch 3.6286232
Ġsnippets 0.80644083
. 2.4974637
Ġ 3.1818435
Ċ 0.014153237
Ċ 0.021574076
"... 6.5526614
the 3.732569
Ġdistress 11.904884
Ġis 3.1232264
Ġreaching 6.6507235
Ġpeak 5.547969
Ġlevels 2.3940039
Ġnow 3.3274212
. 1.3130646
ĠWe 2.3517823
Ġmust 2.303564
Ġharvest 9.885855
Ġsoon 5.1135125
Ġbefore 4.9831953
..." 5.821289
Ġ 1.8814465
Ġ 8.130111
Ċ 0.05310467
"... 6.823406
yes 5.227205
, 0.5543183
Ġthis 4.1691327
Ġone 4.7710037
Ġis 1.1154445
Ġripe 5.085086
. 1.2253492
ĠHis 5.928442
Ġsuffering 5.119577
Ġwill 1.7107363
Ġfeed 3.157179
Ġus 3.112255
Ġfor 2.5231972
..." 5.7555537
Ġ 0.1491767
Ġ 1.0944157
Ċ 0.024296036
"... 0.32777122
the 2.8272023
Ġothers 5.9338923
Ġare 1.5493591
Ġalso 3.3917346
Ġready 4.058765
. 1.1850915
ĠWe 1.6415654
Ġshall 4.109062
Ġhave 3.413951
Ġa 2.1173491
Ġfeast 0.78000015
Ġtonight 2.1340418
!" 3.1964943
Ċ 1.9561542
Ċ 0.23030232
Jake 0.84742016
Ġshook 5.4926767
Ġwith 5.0015507
Ġterror 3.0671506
. 0.76505935
ĠHe 1.2500442
Ġpulled 5.673803
Ġthe 0.63997805
Ġcovers 0.51985294
Ġtightly 4.4665728
Ġover 0.9845864
Ġhis 0.12884484
Ġhead 0.28010476
Ġas 3.2680182
Ġif 4.183384
Ġthat 3.4567144
Ġwould 0.22908267
Ġprotect 2.159344
Ġhim 0.10915601
Ġfrom 0.35514718
Ġwhatever 1.8636612
Ġsinister 4.5219455
Ġpres 6.8800287
ences 0.041774493
Ġwere 0.62847894
Ġjust 5.6813436
Ġoutside 1.1958575
Ġhis 1.0524886
Ġdoor 1.2738862
. 0.049874853
ĠThe 2.8354926
Ġwhispers 3.5633585
Ġgrew 1.9127965
Ġlouder 0.28504676
Ġas 2.3540096
Ġthey 2.0148723
Ġapproached 2.279191
, 2.67516
Ġunaware 10.093711
Ġthat 1.0229517
Ġhe 1.8909549
Ġcould 3.8080308
Ġoverhe 8.195474
ar 0.000662678
Ġthem 0.6912354
. 0.27379563
Ċ 1.2272761
Ċ 0.010608077
" 1.1336926
This 4.1305985
Ġhuman 8.427556
's 3.013722
Ġanguish 5.6306086
Ġand 3.1340106
Ġdespair 3.5596268
Ġare 1.9854248
Ġutterly 7.126844
Ġdelicious 5.6157284
. 0.83714694
ĠHis 2.841903
Ġtroubled 9.440725
Ġsoul 2.5018892
Ġshall 4.7479744
Ġfetch 9.656616
Ġa 3.6421459
Ġhigh 5.745437
Ġprice 0.3148769
Ġin 1.9708899
Ġthe 1.0135728
Ġabyss 6.9393005
al 4.4709477
Ġmarkets 5.615636
. 2.7245264
ĠOur 4.09311
Ġdemonic 6.7521505
Ġbuyers 7.4528136
Ġwill 0.77615106
Ġbe 2.2129076
Ġwell 4.7794027
Ġpleased 0.9656844
Ġwith 1.406507
Ġtonight 6.94742
's 0.026263636
Ġharvest 2.2978258
!" 2.901555
Ċ 0.73077404
Ċ 0.02039274
Jake 0.93290955
's 1.7854756
Ġheart 1.1771715
Ġpounded 1.7775126
Ġas 1.8091496
Ġthe 1.050487
Ġimplications 8.2449665
Ġsank 2.2625468
Ġin 0.057500187
. 0.10680374
ĠHis 2.2843876
Ġintuition 7.338168
Ġhad 2.360647
Ġbeen 0.8014211
Ġright 0.92746115
. 1.0595169
ĠThere 3.3558557
Ġwere 1.079382
Ġmalicious 7.908297
Ġbeings 2.2139156
Ġthat 4.895384
Ġcultivated 8.177563
Ġhuman 2.049856
Ġsuffering 0.29758474
Ġto 2.4277642
Ġfeed 0.14167266
Ġon 0.72355306
Ġsouls 7.799356
. 0.6373982
ĠThey 2.459901
Ġwere 1.1207323
Ġliteral 10.120987
Ġsoul 6.784181
Ġfarmers 5.626586
, 1.4998702
Ġharvesting 3.1588497
Ġhumanity 5.043149
Ġto 2.8272796
Ġsell 4.485562
Ġto 1.1589321
Ġthe 0.8623195
Ġhighest 0.7586351
Ġb 2.8823273
idd 0.00039199076
ers 0.0035177553
Ġin 3.0945556
Ġsome 7.1212673
Ġunh 5.198691
oly 0.018013729
Ġunderworld 1.978341
Ġmarket 3.6378682
. 0.16780397
Ġ 2.3269358
Ċ 0.008858719
Ċ 0.01071007
The 2.1990173
Ġwhispers 1.9681355
Ġturned 4.7601523
Ġinto 1.4706851
Ġc 5.534325
ack 0.29804596
les 0.8403288
Ġof 2.3755343
Ġhideous 8.554479
Ġlaughter 0.097337276
Ġjust 9.443824
Ġoutside 2.0217326
Ġhis 1.1717983
Ġdoor 0.44175193
. 0.30029795
Ġ" 3.6918733
Come 5.3856635
, 1.8473849
Ġcome 2.3773923
, 0.32476234
Ġlittle 3.7279963
Ġmor 8.14051
sel 0.25080612
! 1.7381359
ĠYour 3.4671617
Ġtime 4.6322565
Ġhas 1.5691302
Ġcome 0.068089165
. 1.1370434
ĠYour 2.3393464
Ġsoul 3.2788079
Ġis 1.2772048
Ġripe 1.1663734
Ġfor 0.731659
Ġthe 1.3228891
Ġtaking 1.7423551
!" 1.6770943
Ċ 0.39671615
Ċ 0.004258003
Jake 0.74235713
Ġleapt 5.0179434
Ġout 0.8227162
Ġof 0.046234496
Ġhis 2.0160203
Ġbed 0.17813364
Ġas 3.124326
Ġhis 2.8608963
Ġdoor 4.5185513
Ġflew 2.1306472
Ġopen 0.020613097
Ġwith 2.9352021
Ġa 0.35994604
Ġbang 2.3037457
. 0.20233333
ĠBut 6.4572797
Ġno 3.7067902
Ġone 0.9297878
Ġwas 0.6380444
Ġthere 0.23393854
. 0.30303428
ĠThe 1.9764476
Ġc 5.8408294
ack 0.32686943
les 0.56495786
Ġrose 6.438492
Ġin 2.3865447
Ġvolume 2.0572267
Ġand 1.6293427
Ġintensity 2.6934993
, 1.7889674
Ġshaking 6.2972164
Ġthe 0.26502964
Ġwalls 1.9005278
Ġof 1.8135554
Ġhis 1.6857471
Ġroom 0.7660829
. 0.6144721
ĠHe 2.7680786
Ġscreamed 4.4383774
Ġin 1.5820146
Ġprimal 8.976196
Ġterror 0.5945914
Ġas 1.0120534
Ġhe 1.1279746
Ġrealized 3.8435907
Ġthe 2.2675893
Ġfarmers 11.01505
Ġwere 0.58066165
Ġall 4.1768317
Ġaround 3.7189965
Ġhim 0.49696484
, 1.418803
Ġunseen 8.211941
, 2.1231306
Ġdelight 9.46092
ing 0.12543575
Ġin 0.03392348
Ġhis 0.5997753
Ġanguish 3.5819228
Ġand 0.91902333
Ġpreparing 11.1865015
Ġto 0.99869305
Ġclaim 6.9574203
Ġtheir 4.1215277
Ġharvest 2.7435393
. 0.24288614
Ċ 0.6374302
Ċ 0.002341823
His 3.260206
Ġscreams 2.9467125
Ġwere 1.5082479
Ġcut 2.3203316
Ġshort 0.21780479
Ġas 0.59796196
Ġan 4.3735795
Ġinvisible 3.5966115
Ġforce 2.5486412
Ġw 6.5648003
renched 0.14893061
Ġhis 1.2195386
Ġsoul 4.8363113
Ġfrom 0.5275721
Ġhis 0.3578575
Ġbody 0.12951902
. 0.9295174
ĠHe 1.4161171
Ġcollapsed 3.7145436
Ġlifeless 5.2456474
Ġto 2.5912797
Ġthe 0.02576848
Ġfloor 0.2369948
, 1.1796688
Ġhis 1.6701812
Ġsou 9.294472
ll 0.30318716
ess 0.002175926
Ġcorpse 2.6710048
Ġa 3.608488
Ġtestament 3.9160903
Ġto 0.095569916
Ġhumanity 5.952711
bytes:\xe2\x80 6.599143
bytes:\x99 0.0013481642
s 0.00015338662
Ġgrim 8.361132
Ġpurpose 5.7011833
Ġ- 6.724936
Ġfodder 10.757249
Ġfor 0.14495581
Ġthe 0.460848
Ġins 8.13309
at 0.06386632
iable 0.0005481682
Ġhunger 2.5219014
Ġof 0.19286379
Ġthe 0.44767115
Ġsoul 3.0756867
Ġfarmers 0.26996243
Ġthat 5.2158732
Ġto 7.5195274
iled 0.9693013
Ġin 1.2680107
Ġsecret 4.5730176
Ġto 2.7186584
Ġreap 5.6622424
Ġtheir 1.6087365
Ġhar 6.6618543
v 0.03183039
ests 0.0007077107
Ġeach 5.6341767
Ġnight 0.58642185
. 0.08081101
ĠTheir 7.4995537
Ġsinister 5.4461493
Ġlaughter 3.1284904
Ġechoed 1.7468363
Ġthrough 1.5565103
Ġthe 0.2786715
Ġempty 1.8066125
Ġhalls 2.7470713
Ġof 1.0894213
Ġthe 1.3436446
Ġfarm 4.3333874
house 0.24282975
, 1.596769
Ġcelebrating 7.6250334
Ġanother 6.3037105
Ġbount 6.7521734
iful 0.009513203
Ġharvest 0.07959893
Ġbefore 5.7187715
Ġthey 2.2674434
Ġcontinued 5.915216
Ġonto 5.96221
Ġthe 0.7566146
Ġnext 0.15285513
Ġcrop 4.703357
Ġof 1.486324
Ġhuman 1.8159596
Ġch 7.639565
att 0.11074485
el 1.4049098
. 0.25377318
ĠAnd 6.458321
Ġthe 2.3061433
Ġsun 8.123807
Ġrose 2.2737641
Ġagain 3.246019
Ġon 3.4926722
Ġanother 3.4382937
Ġday 2.0228853
Ġof 1.978415
Ġcultivation 9.6168
Ġin 3.9392464
Ġhumanity 6.4873524
's 0.97392654
Ġfields 10.666789
. 0.3185369
