It 4.7566495
Ġwas 2.1741679
Ġcold 6.48404
, 1.8119078
Ġand 2.3971949
Ġdamp 4.705495
, 0.43379363
Ġand 0.16938493
Ġmiserable 3.3538294
. 0.9814758
ĠA 3.8416758
Ġreasonably 11.495068
Ġnormal 5.0054092
Ġday 0.90431064
Ġin 0.7596463
Ġthe 1.3883358
Ġsouth 6.1230497
Ġeast 4.124452
Ġof 0.4623985
ĠEngland 0.23205194
Ġaround 7.2777295
Ġthis 2.1741247
Ġtime 0.006797521
Ġof 0.057887703
Ġyear 0.086960144
. 0.34207058
ĠMen 9.749746
Ġand 1.8661879
Ġwomen 0.12303802
Ġin 2.5266764
Ġwhite 6.019943
Ġoverall 2.9270003
s 0.0054189903
Ġwere 1.4692222
Ġsc 3.0765543
ouring 4.2019
Ġthe 0.2676951
Ġscene 4.0260086
Ġfor 2.1933448
Ġevidence 1.3969027
Ġwhilst 5.720388
Ġothers 2.6296716
Ġwere 1.2616854
Ġplanting 8.367984
Ġdown 8.300962
Ġnumber 7.8056917
Ġmarkers 0.91191494
Ġand 1.7009052
Ġtaking 1.9549731
Ġphotos 1.7981199
. 0.6083219
Ċ 2.0376894
" 9.055825
In 5.861867
spect 0.98853886
or 0.013509974
?" 2.2651365
Ġa 2.5120919
Ġvoice 1.1479411
Ġcut 5.779867
Ġthrough 0.24326913
Ġthe 0.15862575
Ġstill 4.4585047
Ġmist 5.36092
Ġas 5.0247965
ĠGre 12.22159
aves 3.1817613
Ġstomp 8.252019
ed 0.0005238947
Ġup 2.4502223
Ġthe 1.1993977
Ġhill 1.7585946
Ġand 4.3439445
Ġshowed 7.509575
Ġhis 0.36854485
Ġbadge 1.084223
Ġto 0.6921392
Ġthe 0.3207807
Ġofficer 1.181344
Ġman 4.1907625
ning 0.00013013717
Ġthe 0.013452701
Ġpolice 2.8153815
Ġtape 0.61547005
. 0.22117554
Ċ 0.34708452
" 0.17395897
What 3.5288885
've 3.3261743
Ġwe 0.22361608
Ġgot 0.0017023413
?" 0.31664824
ĠGre 1.7879293
aves 0.0012549403
Ġgr 6.446228
umbled 0.016316032
. 1.3706473
ĠThe 2.8058915
Ġmorning 6.688468
Ġcoffee 4.9912753
Ġnot 6.0820346
Ġhaving 1.2815504
Ġkicked 1.6480728
Ġin 0.014714896
Ġquite 2.7169566
Ġyet 0.14254446
Ġand 4.0174894
Ġhe 1.8576839
Ġwas 0.6401198
Ġstill 1.7714994
Ġblinking 8.043187
Ġthe 1.0693829
Ġsleep 0.19458042
Ġout 0.90370995
Ġof 0.024317414
Ġhis 0.015774796
Ġeyes 0.07033863
. 0.08851091
Ċ 0.15893643
" 0.17631431
Double 6.0104065
Ġhomicide 0.511247
" 3.161043
Ġreplied 2.6098125
Ġthe 0.088586785
Ġofficer 0.43529257
Ġ" 2.4883044
Male 3.792407
Ġand 0.15971832
Ġfemale 0.15853578
Ġof 6.9074416
Ġaround 3.3053057
Ġthe 2.518967
Ġages 4.86045
Ġtwenty 4.626136
. 6.595059
ĠWe 3.060795
're 1.4312195
Ġstill 1.5258678
Ġrunning 6.3355885
Ġidentity 4.2882104
Ġchecks 0.64116615
Ġso 4.6427703
Ġfor 4.72011
Ġnow 0.18653762
Ġthey 1.8328065
're 0.38056675
Ġjust 1.5124339
Ġgoing 3.8506253
Ġdown 4.2806654
Ġas 0.05147588
ĠJack 8.5822115
Ġand 0.079565115
ĠJill 0.22750251
Ġrespectively 8.823852
. 1.0595193
ĠFore 4.515027
nsics 0.0013132492
Ġhasn 5.387215
't 0.00013276069
Ġgotten 4.57652
Ġinto 5.378908
Ġthe 0.3901434
Ġcause 8.962885
Ġof 0.03560782
Ġdeath 0.023575434
Ġas 3.2720697
Ġthere 5.30775
's 0.7485909
Ġno 1.7782352
Ġapparent 3.379451
Ġblood 4.2846527
Ġor 2.146825
Ġwounds 2.328066
Ġon 1.5628488
Ġthe 0.70616686
Ġindividuals 8.959373
Ġwhich 5.259404
Ġleads 3.3157315
Ġus 0.49680236
Ġto 0.017830953
Ġbelieve 0.22932328
Ġit 2.0527015
Ġcould 2.6277003
Ġhave 1.7343148
Ġpotentially 6.833438
Ġbeen 0.08763035
Ġa 1.2084154
Ġpoisoning 2.4405227
". 3.3604856
ĠThe 4.3909717
Ġyounger 6.531192
Ġofficer 0.4996894
Ġtook 3.647226
Ġoff 4.1368623
Ġher 4.043145
Ġcap 2.2138755
Ġand 0.32149786
Ġsmoot 5.0484157
hed 0.006128437
Ġher 1.4061567
Ġblonde 3.0207634
Ġhair 0.15185234
. 2.3807273
ĠGre 2.24634
aves 0.0017911292
Ġestimated 8.8860035
Ġher 0.6478036
Ġto 0.37431002
Ġbe 0.04943881
Ġaround 1.3577316
Ġthe 1.4965011
Ġage 0.6777417
Ġof 0.02281833
Ġ30 5.887982
, 1.3547512
Ġstress 12.971132
Ġlines 1.3990076
Ġaround 1.8799297
Ġher 0.2337862
Ġeyes 0.39318216
Ġsuggested 3.1715658
Ġthat 1.9422044
Ġshe 0.5373178
Ġwasn 2.790082
't 0.000107247215
Ġgetting 1.9947462
Ġmuch 1.423013
Ġsleep 0.06258143
. 1.1277655
Ċ 0.48806754
As 6.470216
Ġthey 1.7080194
Ġapproached 1.8243735
Ġthe 0.086413555
Ġwhite 4.7240953
Ġtent 0.83493423
Ġcovering 3.4849617
Ġthe 0.11423667
Ġbodies 1.1097558
Ġthey 3.2931418
Ġwere 1.5253576
Ġintercepted 4.9837284
Ġby 0.01739551
Ġa 0.6950439
Ġwell 4.642452
Ġdressed 0.9964238
Ġgentleman 3.2747617
. 2.2968452
ĠSw 10.206424
inging 1.5053862
Ġhis 1.2684025
Ġcane 2.0726967
Ġas 2.6822076
Ġhe 0.23116209
Ġwalked 0.5337403
, 1.2287095
Ġhis 2.1216092
Ġsuit 3.3307989
Ġappearing 6.577843
Ġsurprisingly 8.46969
Ġdry 3.7990515
Ġconsidering 1.793592
Ġthe 0.27652422
Ġweather 0.7672409
. 0.51083535
ĠHe 2.3970406
Ġreached 4.4740963
Ġhis 3.7425132
Ġhand 0.43937957
Ġout 0.10009854
Ġto 0.48095047
Ġshake 2.9512844
Ġthe 3.2947564
ĠInspect 3.6071217
ors 0.0017555421
Ġand 2.0543063
Ġsmiled 3.122218
Ġa 2.7881925
Ġto 1.5898224
othy 0.0055713397
, 3.4772701
Ġwell 4.0608945
Ġpracticed 2.1701074
Ġgrin 2.14117
. 0.11196937
Ċ 0.3450763
" 0.25911376
Ah 2.854067
! 3.0088737
ĠInspector 0.3622156
, 4.001586
ĠI 1.4607601
Ġwas 2.4796572
Ġhoping 1.387881
Ġto 1.2183195
Ġmeet 2.5901523
Ġyou 0.08160329
Ġbefore 5.077882
Ġwe 2.5543857
Ġgot 1.7555133
Ġto 2.8069518
Ġthe 1.1236048
Ġuh 9.746532
..." 3.28162
ĠHe 2.865764
Ġpaused 2.2724
Ġfor 2.2695453
Ġa 0.20735474
Ġmoment 0.46011916
, 1.6291449
Ġhis 3.054408
Ġeyes 0.69438756
Ġdart 1.5554571
ing 0.0003061859
Ġto 1.8763845
Ġthe 0.18722942
Ġtent 1.6974986
Ġfor 4.5106626
Ġa 0.13287462
Ġsecond 1.1237923
Ġ"... 3.9170938
G 5.913245
rist 7.9735374
ly 0.5969287
Ġdetails 1.8673745
. 1.6368867
ĠI 0.9121298
'll 5.302829
Ġbe 1.3134605
Ġworking 4.157642
Ġwith 0.91868216
Ġyou 0.19886738
Ġon 0.26000357
Ġthis 0.085923165
Ġcase 0.6120977
. 2.096519
ĠMy 1.2446799
Ġname 0.03604645
's 1.6269209
ĠGregory 5.6205587
, 2.409963
ĠGregory 0.5334784
ĠCoff 9.518439
yn 5.264655
. 1.4292071
ĠI 0.59102684
'm 0.64702845
Ġone 4.702119
Ġof 0.0045412965
Ġthe 0.3824366
ĠAb 9.80335
led 8.797153
." 6.201723
Ċ 0.62960505
The 2.9310892
Ġ' 5.747551
Ab 2.6492617
led 0.010525611
' 0.21396932
Ġas 3.007315
Ġthey 0.32893574
'd 4.540203
Ġcome 0.72677964
Ġto 0.0033150618
Ġhave 9.345744
Ġbeen 0.6821197
Ġknown 1.4142109
Ġwere 1.1868514
Ġsomething 6.5807986
Ġthat 1.3116384
Ġstill 5.59509
Ġremained 5.356473
Ġto 4.823259
Ġbe 0.085035264
Ġa 2.6183581
Ġmystery 1.7962307
Ġto 0.5182483
Ġmodern 6.9955373
Ġscience 0.87395656
. 0.13175422
ĠThroughout 7.4692016
Ġhistory 0.7620029
Ġdespite 10.211133
Ġthe 1.188502
Ġadvances 3.793422
Ġin 0.5884134
Ġtechnology 1.1763382
, 1.2993383
Ġmedicine 1.6672279
Ġand 0.40783116
Ġthe 2.5799317
Ġphysical 6.5149975
Ġsciences 0.7923642
Ġthe 2.3912456
ĠAb 1.8689224
led 0.13011795
Ġhad 0.8857878
Ġbeen 2.211413
Ġvery 6.128979
Ġmuch 0.99869823
Ġon 5.0954337
Ġthe 0.29569483
Ġparanormal 9.073993
Ġend 4.6709027
Ġof 0.015243457
Ġthings 2.3169801
. 0.18386506
ĠU 7.7679987
nex 0.04218046
pl 0.58698773
ained 0.008792697
Ġoccurrences 2.6050072
Ġsuch 2.6582217
Ġas 0.0032711076
Ġfloating 6.0574055
Ġlights 4.142479
, 0.36335748
Ġsounds 6.0902505
Ġthat 2.5120986
Ġhad 4.1968365
Ġno 0.38240212
Ġsource 0.9720302
Ġand 0.934598
Ġfloating 7.1645856
Ġobjects 1.3790364
Ġtended 7.3142986
Ġto 0.013721086
Ġbe 1.023096
Ġmanifestations 9.0084915
Ġof 0.07507151
Ġsuch 6.3213253
Ġindividuals 2.5979831
. 0.15775894
ĠThe 2.5321605
Ġmajority 4.432977
Ġof 0.21310571
Ġthem 2.2271771
Ġwere 1.1159328
Ġunable 5.3455777
Ġto 0.0512823
Ġcorrectly 9.521822
Ġatt 11.244044
une 0.002299823
Ġthemselves 0.93966293
Ġbefore 8.086759
Ġmaturity 9.3492775
Ġand 1.3060008
Ġas 2.1145031
Ġa 1.3324637
Ġresult 0.07074875
Ġwere 1.9106141
Ġnever 4.0301557
Ġquite 4.143881
Ġable 0.7695973
Ġto 0.0038695312
Ġget 3.4315376
Ġa 1.7320948
Ġgrasp 1.4881955
Ġon 0.33357456
Ġtheir 0.74465233
Ġabilities 0.8110902
. 0.27131134
ĠHowever 3.3164368
Ġthose 3.6583822
Ġthat 0.7152233
Ġdid 0.9168384
Ġbecame 4.770724
Ġextraordinarily 6.0464916
Ġtalented 3.9189384
Ġin 1.5001599
Ġwhatever 2.6596248
Ġspecial 5.4420233
ties 4.128642
Ġthey 0.18385483
Ġfocused 3.7009852
Ġthemselves 3.585515
Ġon 0.7956199
. 0.20771658
ĠThey 3.8702412
Ġalso 3.9702613
Ġbecame 1.9514701
Ġa 2.9538324
Ġgreat 3.756023
Ġasset 1.4082719
, 5.2153563
Ġor 1.9813054
Ġa 1.250937
Ġgreater 5.2701483
Ġthreat 1.308478
. 5.2931256
Ċ 1.2321717
" 2.6180508
Ah 2.8764462
!" 4.1004386
ĠSm 8.614555
iled 0.047178548
ĠGre 0.49174112
aves 0.00035800316
Ġ" 0.9609541
and 6.3341804
Ġwhat 0.547333
's 2.5777164
Ġyour 0.5111508
Ġpar 9.095686
lor 2.8943503
Ġtrick 0.0052918894
?". 5.513627
ĠGregory 2.6595676
Ġraised 3.8054502
Ġan 0.5920048
Ġeyebrow 0.011381201
Ġand 1.3651872
Ġpurs 4.4875712
ed 0.00090599596
Ġhis 0.0027115326
Ġlips 0.0243201
Ġas 3.0244017
Ġhe 1.2359006
Ġassessed 7.2633276
Ġthe 0.5691144
Ġdetective 3.264377
. 0.43070555
ĠHe 2.732584
Ġstared 6.794434
Ġat 1.6017054
ĠGre 0.94482136
aves 0.0010407129
Ġfor 0.52689165
Ġa 0.20202093
Ġmoment 0.89999557
Ġbefore 1.1177971
Ġfinally 4.5726123
, 6.3042946
Ġalmost 2.9795809
Ġreluctantly 0.64068997
Ġadmitting 5.5782056
Ġ" 1.126148
I 0.9967714
'm 1.1193672
Ġgood 3.6806486
Ġwith 0.3584447
Ġtime 4.814515
". 0.657493
ĠGre 1.751552
aves 0.0050283303
Ġmade 6.2513094
Ġa 0.34489736
Ġface 2.499224
Ġ" 3.146838
Time 1.2631742
?" 1.3260365
Ġhe 0.994464
Ġasked 1.6100901
Ġapparently 9.960901
Ġun 1.9064496
imp 0.11282079
ressed 0.00022927843
Ġat 5.098524
Ġthe 0.62997407
Ġexplanation 5.277827
. 0.29847825
Ġ" 1.6810156
Can 6.2757087
Ġyou 0.28066197
Ġmaybe 6.4690237
Ġun 8.592453
pack 1.3248962
Ġthat 0.030577237
Ġfor 1.5054165
Ġme 0.054748937
? 2.2758157
ĠUs 9.469241
Ġnormal 2.3419008
Ġfolk 0.70997345
Ġdon 1.0910792
't 0.0003061859
Ġquite 2.3921566
Ġunderstand 1.4971615
Ġwhatever 8.718552
Ġwitchcraft 7.1573296
, 7.4878325
Ġsorcery 1.9001545
Ġor 0.26016447
Ġmagic 3.897548
Ġyou 1.2400806
Ġmight 4.7108254
Ġdo 3.1570537
". 1.7548186
ĠGregory 0.8415144
Ġshifted 5.346433
Ġuncom 0.9827892
fort 9.878341e-05
ably 0.0013497758
Ġand 1.7320116
Ġlooked 2.308285
Ġdown 2.447301
Ġat 0.28386956
Ġhis 0.4818852
Ġshoes 1.1089627
Ġwhilst 4.9615207
Ġtapping 4.24712
Ġhis 0.27931374
Ġcane 0.21267717
Ġon 1.2049848
Ġthe 0.028026067
Ġgrass 3.273408
. 0.30218083
ĠHe 2.1572416
Ġpulled 5.3213305
Ġout 1.228564
Ġa 0.30619928
Ġpair 3.8296936
Ġof 0.004513755
Ġgloves 3.9518318
Ġfrom 0.61475
Ġhis 0.13434708
Ġpocket 0.75539666
, 2.4608843
Ġrunes 15.219782
Ġse 4.031709
wn 0.09689831
Ġinto 0.26602614
Ġthe 0.15663566
Ġfabric 1.539448
. 2.3755445
ĠGold 10.311259
Ġthread 1.3461307
Ġwe 4.6080923
aved 0.0035994668
Ġinto 1.3518105
Ġthe 0.52639854
Ġsoft 5.9143386
Ġleather 0.94575083
Ġforming 5.8819203
Ġintricate 2.315842
Ġsymbols 2.9421184
Ġof 2.9642706
Ġpower 1.6416053
Ġthat 3.6913705
Ġhelped 5.5379786
Ġthe 3.1324365
ĠAb 2.7329993
led 0.006166941
Ġfocus 1.5541999
Ġtheir 0.33869734
Ġtalents 5.2478857
. 0.21946801
Ġ" 2.2054446
How 6.1783895
Ġabout 1.6109093
Ġwe 1.0887356
Ġget 2.1140096
Ġto 1.827903
Ġit 3.3210478
Ġand 2.9060175
ĠI 0.6765394
'll 0.44379076
Ġdemonstrate 3.5576005
Ġas 4.214589
Ġwe 0.34181952
Ġgo 0.16557838
" 2.2641437
ĠS 9.329474
ighed 0.46117252
ĠGregory 0.75466
Ġas 1.3070806
Ġhe 0.0713819
Ġlifted 5.483683
Ġhis 3.1399288
Ġcane 1.6874808
Ġto 2.4088905
Ġindicate 5.2671247
Ġthe 0.5686613
Ġtent 0.5936484
Ġ" 2.515114
after 2.4397428
Ġyou 0.33394316
". 0.9600756
Ċ 0.22397467
Gre 0.3558315
aves 0.0005604514
Ġgrun 4.746778
ted 0.00044452143
Ġand 0.6942161
Ġstomp 6.0537057
ed 0.00074713683
Ġover 3.137073
Ġto 0.25129452
Ġthe 0.036255147
Ġtent 0.44795302
. 1.1857659
ĠHe 1.3166054
Ġlifted 3.157209
Ġup 2.1832929
Ġthe 0.0923321
Ġcanvas 3.8307815
Ġflap 0.9046629
Ġand 0.26347008
Ġstepped 2.1829295
Ġinside 0.60093355
. 0.60592693
Ċ 2.764975
( 8.439863
I 4.0424595
'll 2.389293
Ġprobably 4.021709
Ġfinish 5.4926987
Ġthis 0.4128528
Ġup 1.4197254
Ġwhen 3.6865609
ĠI 0.09329725
Ġget 0.5831421
Ġhome 0.5673615
Ġfrom 1.324116
Ġwork 0.17888281
) 1.8095047
