It 4.5131607
Ġwas 2.1794004
Ġcold 7.8434415
, 1.9169227
Ġand 2.505858
Ġdamp 6.0761137
, 0.7291002
Ġand 0.21719337
Ġmiserable 4.3839965
. 1.0834705
ĠA 3.8678844
Ġreasonably 12.143798
Ġnormal 6.4052324
Ġday 1.2639724
Ġin 1.517704
Ġthe 1.4031054
Ġsouth 5.007761
Ġeast 4.232265
Ġof 0.8118878
ĠEngland 0.7955773
Ġaround 8.808681
Ġthis 3.8435984
Ġtime 0.0563941
Ġof 0.18406373
Ġyear 0.17276005
. 0.6987104
ĠMen 8.949698
Ġand 2.1137955
Ġwomen 0.1977162
Ġin 2.9160717
Ġwhite 4.1325026
Ġoverall 4.5800476
s 0.007423389
Ġwere 2.1100721
Ġsc 5.1912804
ouring 2.4940953
Ġthe 0.3195418
Ġscene 7.6567435
Ġfor 1.4597476
Ġevidence 3.7841904
Ġwhilst 12.311133
Ġothers 2.6775277
Ġwere 1.3631546
Ġplanting 6.960749
Ġdown 6.3866634
Ġnumber 9.991691
Ġmarkers 5.550443
Ġand 2.209573
Ġtaking 4.860821
Ġphotos 2.2080264
. 0.61791104
Ċ 1.6115732
" 10.670736
In 5.6397085
spect 3.2079923
or 0.76407635
?" 3.8631032
Ġa 3.0168798
Ġvoice 1.2360288
Ġcut 5.204304
Ġthrough 0.48936787
Ġthe 0.13556801
Ġstill 4.492175
Ġmist 9.517968
Ġas 3.8611667
ĠGre 10.127521
aves 3.233207
Ġstomp 7.264707
ed 0.003930922
Ġup 2.4568057
Ġthe 0.875246
Ġhill 2.3043609
Ġand 3.7171857
Ġshowed 8.822111
Ġhis 1.5941496
Ġbadge 0.6889111
Ġto 0.51541924
Ġthe 0.72555095
Ġofficer 3.0925124
Ġman 6.63203
ning 0.0029249243
Ġthe 0.0335738
Ġpolice 4.7019424
Ġtape 2.6114104
. 0.3287571
Ċ 1.1006707
" 0.22038467
What 2.8323338
've 6.424294
Ġwe 2.9833362
Ġgot 0.117762
?" 0.6043212
ĠGre 3.378749
aves 0.0015000162
Ġgr 7.1317983
umbled 0.19426006
. 1.1405467
ĠThe 3.4829361
Ġmorning 5.9759135
Ġcoffee 8.93113
Ġnot 8.211156
Ġhaving 2.6771424
Ġkicked 5.0136967
Ġin 0.11098938
Ġquite 4.969797
Ġyet 0.115734115
Ġand 3.0544302
Ġhe 1.6441123
Ġwas 0.56530553
Ġstill 2.4591525
Ġblinking 9.581918
Ġthe 3.9526677
Ġsleep 2.1786938
Ġout 0.60479593
Ġof 0.0034966997
Ġhis 0.2315799
Ġeyes 0.049720615
. 0.4819086
Ċ 0.60104394
" 0.20691158
Double 8.964403
Ġhomicide 5.5197034
" 5.144497
Ġreplied 5.550947
Ġthe 0.14995599
Ġofficer 0.8235366
Ġ" 4.1686053
Male 8.742975
Ġand 1.3998264
Ġfemale 0.07406349
Ġof 4.760845
Ġaround 4.2008095
Ġthe 0.8319039
Ġages 5.2163377
Ġtwenty 7.3153214
. 6.2872005
ĠWe 4.23375
're 1.4505333
Ġstill 3.4292681
Ġrunning 5.047103
Ġidentity 11.289713
Ġchecks 0.37839553
Ġso 4.7998505
Ġfor 6.572428
Ġnow 1.1675196
Ġthey 3.5177658
're 0.85362476
Ġjust 1.9096609
Ġgoing 3.2897408
Ġdown 4.801276
Ġas 3.1632357
ĠJack 7.251837
Ġand 1.709586
ĠJill 3.8782856
Ġrespectively 7.0160713
. 0.91947484
ĠFore 10.269563
nsics 0.011078605
Ġhasn 4.70635
't 0.0006769914
Ġgotten 5.7972884
Ġinto 3.984238
Ġthe 0.67295045
Ġcause 7.0085483
Ġof 0.35526398
Ġdeath 0.15141472
Ġas 3.2732203
Ġthere 4.848325
's 0.59232974
Ġno 0.9675689
Ġapparent 4.348926
Ġblood 4.6137495
Ġor 1.718624
Ġwounds 4.527085
Ġon 1.495809
Ġthe 0.8417164
Ġindividuals 7.704143
Ġwhich 5.4389987
Ġleads 4.1686983
Ġus 0.46208405
Ġto 0.102043435
Ġbelieve 0.92765945
Ġit 1.6117892
Ġcould 3.0418477
Ġhave 0.97674024
Ġpotentially 8.615688
Ġbeen 0.14687279
Ġa 1.0036987
Ġpoisoning 7.9423547
". 3.480538
ĠThe 4.546597
Ġyounger 7.5088882
Ġofficer 0.85193694
Ġtook 3.9249995
Ġoff 3.2190933
Ġher 4.0459175
Ġcap 2.355522
Ġand 0.38786888
Ġsmoot 7.260087
hed 0.006064571
Ġher 0.8780936
Ġblonde 2.7882955
Ġhair 0.050979994
. 2.450348
ĠGre 2.7622335
aves 0.0039907633
Ġestimated 10.204129
Ġher 3.1201952
Ġto 1.9387261
Ġbe 0.029171284
Ġaround 1.0176444
Ġthe 2.7781286
Ġage 1.2563517
Ġof 0.01598657
Ġ30 3.5030503
, 2.0342464
Ġstress 12.908194
Ġlines 3.2072616
Ġaround 2.602558
Ġher 0.07313734
Ġeyes 0.20933123
Ġsuggested 5.2258983
Ġthat 2.2553842
Ġshe 0.22328651
Ġwasn 3.8271854
't 0.0041299113
Ġgetting 4.532261
Ġmuch 1.034081
Ġsleep 0.09759418
. 0.97528774
Ċ 0.62032753
As 6.6070685
Ġthey 2.438962
Ġapproached 2.4650888
Ġthe 0.3255937
Ġwhite 6.6554165
Ġtent 5.948832
Ġcovering 6.478367
Ġthe 0.28752682
Ġbodies 3.6142924
Ġthey 1.6630123
Ġwere 1.648217
Ġintercepted 10.057707
Ġby 0.058824185
Ġa 0.8472545
Ġwell 5.2557235
Ġdressed 0.7531291
Ġgentleman 4.311824
. 2.1523774
ĠSw 9.536052
inging 0.47061852
Ġhis 0.7292252
Ġcane 3.655045
Ġas 4.583601
Ġhe 0.82754
Ġwalked 1.7241423
, 2.811574
Ġhis 2.881259
Ġsuit 4.0925016
Ġappearing 7.690089
Ġsurprisingly 7.0833654
Ġdry 3.5951164
Ġconsidering 3.842547
Ġthe 0.53372544
Ġweather 1.5774484
. 0.38917023
ĠHe 2.259453
Ġreached 5.4450617
Ġhis 4.108652
Ġhand 0.49244252
Ġout 0.4097589
Ġto 0.7723235
Ġshake 1.6697012
Ġthe 1.7614596
ĠInspect 12.602701
ors 0.10239176
Ġand 1.6587427
Ġsmiled 3.4670734
Ġa 3.5783226
Ġto 6.216681
othy 0.056374494
, 3.9278624
Ġwell 6.61477
Ġpracticed 5.416895
Ġgrin 2.598568
. 0.3395249
Ċ 0.21106915
" 0.059839893
Ah 4.647136
! 4.5517626
ĠInspector 2.7842085
, 2.040814
ĠI 1.3510363
Ġwas 2.7825806
Ġhoping 1.87019
Ġto 0.854603
Ġmeet 1.847328
Ġyou 0.25739527
Ġbefore 4.511868
Ġwe 1.8860992
Ġgot 3.5737774
Ġto 2.3414066
Ġthe 0.5411381
Ġuh 12.501106
..." 2.491296
ĠHe 2.1327877
Ġpaused 2.0851102
Ġfor 3.0378344
Ġa 0.21394496
Ġmoment 0.89046746
, 1.7700653
Ġhis 2.1512413
Ġeyes 1.5244501
Ġdart 2.8801124
ing 0.0010299757
Ġto 1.5720598
Ġthe 0.5329939
Ġtent 5.154172
Ġfor 4.4515514
Ġa 0.41043076
Ġsecond 1.0924075
Ġ"... 7.4888344
G 7.2995667
rist 9.088259
ly 4.192593
Ġdetails 9.173325
. 1.4862915
ĠI 1.3832619
'll 3.9502134
Ġbe 1.3193574
Ġworking 6.7020416
Ġwith 1.6177607
Ġyou 2.2478232
Ġon 2.0935712
Ġthis 1.083377
Ġcase 2.159184
. 1.9784852
ĠMy 4.508148
Ġname 0.33675987
's 1.1170247
ĠGregory 6.8826785
, 2.6474946
ĠGregory 3.370435
ĠCoff 9.511805
yn 6.2933474
. 1.1454117
ĠI 0.993172
'm 0.81086534
Ġone 4.0701685
Ġof 0.021765513
Ġthe 0.22177549
ĠAb 9.001915
led 6.992028
." 5.536117
Ċ 0.59027594
The 4.866974
Ġ' 6.590649
Ab 2.2879517
led 0.023262544
' 0.052544147
Ġas 5.072675
Ġthey 2.0742786
'd 4.3067555
Ġcome 1.7803985
Ġto 0.01856845
Ġhave 7.504599
Ġbeen 0.95356447
Ġknown 1.3639723
Ġwere 2.9516613
Ġsomething 6.0897317
Ġthat 2.6217809
Ġstill 7.0661182
Ġremained 3.1370304
Ġto 2.654055
Ġbe 0.06096819
Ġa 6.674879
Ġmystery 0.8749413
Ġto 1.1351329
Ġmodern 4.01487
Ġscience 2.5830896
. 0.38407382
ĠThroughout 8.5861845
Ġhistory 1.2308145
Ġdespite 9.241371
Ġthe 1.2463099
Ġadvances 2.8346875
Ġin 0.68277633
Ġtechnology 0.5581108
, 1.5336895
Ġmedicine 5.744603
Ġand 0.52200234
Ġthe 3.0249577
Ġphysical 5.8213773
Ġsciences 0.65185857
Ġthe 2.8416767
ĠAb 3.6233425
led 0.038353365
Ġhad 1.3688556
Ġbeen 1.9133718
Ġvery 5.771927
Ġmuch 1.2007961
Ġon 5.245605
Ġthe 0.12270899
Ġparanormal 7.732854
Ġend 3.230327
Ġof 0.06861926
Ġthings 0.5365754
. 0.2019611
ĠU 10.463284
nex 1.1212608
pl 0.75321937
ained 0.0633266
Ġoccurrences 5.508444
Ġsuch 3.3683355
Ġas 0.0042625507
Ġfloating 7.8097014
Ġlights 3.7933114
, 1.1643102
Ġsounds 6.504532
Ġthat 1.9296943
Ġhad 4.1114755
Ġno 1.1437773
Ġsource 3.7279975
Ġand 1.0998845
Ġfloating 6.4437747
Ġobjects 3.2228007
Ġtended 8.435615
Ġto 0.010561269
Ġbe 1.2349317
Ġmanifestations 7.533907
Ġof 0.09065763
Ġsuch 5.925723
Ġindividuals 6.9741397
. 0.5097513
ĠThe 2.5313776
Ġmajority 5.508631
Ġof 0.09650805
Ġthem 2.5692065
Ġwere 0.95558625
Ġunable 5.6497746
Ġto 0.0143456245
Ġcorrectly 9.122412
Ġatt 10.883594
une 0.15119332
Ġthemselves 1.1306584
Ġbefore 9.993739
Ġmaturity 9.59303
Ġand 1.6910316
Ġas 4.0858774
Ġa 1.2896864
Ġresult 0.08556684
Ġwere 1.713541
Ġnever 4.491248
Ġquite 4.332308
Ġable 1.3813795
Ġto 0.0057759294
Ġget 4.3545055
Ġa 1.9002002
Ġgrasp 2.7064312
Ġon 0.4098613
Ġtheir 1.3334513
Ġabilities 2.1854594
. 0.30957747
ĠHowever 4.4594693
Ġthose 5.381329
Ġthat 0.9203193
Ġdid 1.7366369
Ġbecame 5.4708414
Ġextraordinarily 6.6011972
Ġtalented 2.6724408
Ġin 1.8870475
Ġwhatever 4.449791
Ġspecial 7.113276
ties 1.9902631
Ġthey 0.1413204
Ġfocused 5.4188643
Ġthemselves 3.3441703
Ġon 0.5548429
. 0.45078364
ĠThey 3.2757263
Ġalso 3.4951594
Ġbecame 2.605805
Ġa 3.3993902
Ġgreat 4.2583127
Ġasset 3.4288473
, 6.0289736
Ġor 4.31558
Ġa 2.8748488
Ġgreater 5.6635413
Ġthreat 1.4561119
. 4.0560656
Ċ 1.1793115
" 1.1315395
Ah 4.1475186
!" 3.3796747
ĠSm 7.317931
iled 2.0266252
ĠGre 1.420634
aves 0.001444204
Ġ" 1.3154587
and 8.318222
Ġwhat 2.7159848
's 2.325646
Ġyour 1.0927552
Ġpar 10.742549
lor 3.6629775
Ġtrick 2.8627734
?". 7.6359057
ĠGregory 3.4759285
Ġraised 5.3908534
Ġan 1.1202437
Ġeyebrow 0.08619127
Ġand 1.8565223
Ġpurs 6.9625397
ed 0.0033007707
Ġhis 0.022805277
Ġlips 0.04245891
Ġas 2.4178605
Ġhe 0.31313965
Ġassessed 7.46848
Ġthe 0.6093887
Ġdetective 6.2448907
. 0.5267126
ĠHe 3.8197694
Ġstared 7.4060054
Ġat 0.85388815
ĠGre 0.7528982
aves 0.0004940775
Ġfor 0.9601127
Ġa 0.13326524
Ġmoment 0.8445474
Ġbefore 0.90451425
Ġfinally 3.9568722
, 6.7561364
Ġalmost 4.326145
Ġreluctantly 3.645191
Ġadmitting 5.80322
Ġ" 1.3830024
I 1.2364644
'm 1.3282026
Ġgood 4.58039
Ġwith 3.1506882
Ġtime 6.375902
". 4.0209074
ĠGre 0.8940484
aves 0.0008661446
Ġmade 5.7329793
Ġa 0.36145353
Ġface 1.9976808
Ġ" 3.311426
Time 6.4068084
?" 2.2337754
Ġhe 2.1792529
Ġasked 1.1731498
Ġapparently 10.666814
Ġun 3.6768317
imp 1.3664656
ressed 0.0019347464
Ġat 4.1944857
Ġthe 0.77908754
Ġexplanation 3.8487442
. 0.19319685
Ġ" 2.928399
Can 5.6061025
Ġyou 0.60965323
Ġmaybe 6.7828913
Ġun 8.153718
pack 2.5600934
Ġthat 2.0641391
Ġfor 2.4766057
Ġme 0.08759573
? 2.13712
ĠUs 9.399759
Ġnormal 5.5285425
Ġfolk 2.608215
Ġdon 2.099759
't 0.0016406073
Ġquite 4.8713455
Ġunderstand 1.4570189
Ġwhatever 9.579257
Ġwitchcraft 11.868021
, 5.1277065
Ġsorcery 2.4340966
Ġor 0.93659204
Ġmagic 3.2173123
Ġyou 2.503466
Ġmight 3.4380913
Ġdo 4.9322996
". 2.0780268
ĠGregory 1.4996418
Ġshifted 6.6420026
Ġuncom 2.024953
fort 0.0002079936
ably 0.0012089905
Ġand 2.3789055
Ġlooked 2.383075
Ġdown 1.7508779
Ġat 0.46904713
Ġhis 0.6402321
Ġshoes 1.5463341
Ġwhilst 6.0032086
Ġtapping 5.1580424
Ġhis 0.5006716
Ġcane 0.17883995
Ġon 1.3614926
Ġthe 0.033184808
Ġgrass 3.980404
. 0.4604605
ĠHe 2.5928679
Ġpulled 4.6677537
Ġout 1.195148
Ġa 0.40266886
Ġpair 3.9862802
Ġof 0.05598879
Ġgloves 2.7556205
Ġfrom 1.8129328
Ġhis 0.38235298
Ġpocket 0.9325433
, 2.4334905
Ġrunes 14.003305
Ġse 4.366831
wn 0.07544572
Ġinto 0.6313064
Ġthe 0.58792317
Ġfabric 1.9069483
. 0.90582913
ĠGold 12.689441
Ġthread 4.589749
Ġwe 9.503721
aved 0.043686055
Ġinto 2.1326475
Ġthe 0.3661226
Ġsoft 7.270885
Ġleather 1.9161893
Ġforming 7.666695
Ġintricate 3.669275
Ġsymbols 4.2383013
Ġof 3.4637048
Ġpower 4.4585176
Ġthat 3.064331
Ġhelped 8.185689
Ġthe 2.9235146
ĠAb 1.2499677
led 0.009972801
Ġfocus 4.214798
Ġtheir 1.192871
Ġtalents 4.9764657
. 0.5725482
Ġ" 3.4881506
How 5.243868
Ġabout 1.9096606
Ġwe 2.9585695
Ġget 2.0397542
Ġto 2.347936
Ġit 3.1793761
Ġand 3.8302712
ĠI 2.503216
'll 0.40211025
Ġdemonstrate 5.279605
Ġas 6.5345497
Ġwe 1.5716475
Ġgo 0.2511445
" 3.8245225
ĠS 8.984924
ighed 0.97658217
ĠGregory 1.7143862
Ġas 2.729393
Ġhe 0.28653762
Ġlifted 5.4588666
Ġhis 1.0565114
Ġcane 1.7785503
Ġto 2.120377
Ġindicate 5.9000425
Ġthe 0.96904355
Ġtent 4.012176
Ġ" 4.3543563
after 8.001842
Ġyou 1.7798765
". 2.6520243
Ċ 1.777345
Gre 2.192681
aves 0.0006713868
Ġgrun 5.3958197
ted 0.0015589362
Ġand 1.4955474
Ġstomp 6.5287404
ed 0.001263237
Ġover 3.2004251
Ġto 0.13604756
Ġthe 0.20160154
Ġtent 0.22432835
. 1.3725113
ĠHe 1.7138728
Ġlifted 5.121324
Ġup 2.6089358
Ġthe 0.50111896
Ġcanvas 3.8561108
Ġflap 1.1464853
Ġand 0.46397415
Ġstepped 3.2786562
Ġinside 0.71812934
. 0.6114502
Ċ 2.1933007
( 7.380565
I 2.9890897
'll 2.960033
Ġprobably 4.9493055
Ġfinish 7.0412216
Ġthis 1.202936
Ġup 3.0228803
Ġwhen 3.5239487
ĠI 0.54258084
Ġget 0.76010543
Ġhome 1.2337755
Ġfrom 3.7985404
Ġwork 0.3089576
) 1.5925714
