The 2.598347
Ġclock 8.58963
Ġtick 3.27117
ed 0.10182028
Ġa 5.2878933
- 6.5668077
rh 7.869287
ythm 0.29161435
ically 7.405636
Ġand 3.0021622
Ġuncom 9.981997
fort 0.010632475
ably 0.002027792
Ġwhile 5.204768
Ġthe 2.018693
ĠHR 11.437666
Ġrep 7.721371
Ġcontracted 11.9630995
Ġout 7.0668383
Ġfor 5.291812
Ġrecruitment 12.364136
Ġleaf 15.830797
ed 6.8144903
Ġthrough 3.0145648
Ġthe 0.74040806
Ġapplication 8.701193
Ġand 2.9232605
Ġresume 9.439501
Ġwith 6.1296477
Ġa 1.424521
Ġdegree 7.280726
Ġof 0.01851951
Ġhumming 10.346115
Ġand 2.2725577
Ġteeth 8.9876
Ġwhist 8.157348
ling 0.06531628
. 0.63951296
Ċ 1.672899
The 9.271981
Ġroom 6.904031
Ġwas 0.9566711
Ġslightly 6.3727083
Ġtoo 4.125272
Ġcold 3.1640642
, 1.9697605
Ġthe 1.7555336
Ġrep 9.070342
Ġhas 7.913127
Ġadjusted 7.546847
Ġit 3.0697265
Ġdown 4.22035
Ġand 3.1009727
Ġwas 4.2484574
Ġdressed 7.2389913
Ġaccordingly 6.1385956
Ġwith 3.3120525
Ġthe 2.2136133
Ġapplicant 11.578861
Ġfeeling 5.9941325
Ġthe 1.9664211
Ġchill 2.9874196
Ġdressed 10.597096
Ġas 3.1135218
Ġhe 2.8403704
Ġwas 1.5510434
Ġfor 4.804957
Ġthe 1.0634232
Ġsubt 10.590855
rop 1.6234244
ics 2.6323104
. 0.66712105
ĠSub 9.730438
t 1.8067596
ly 1.3153113
Ġlooking 4.859702
Ġabout 4.814464
Ġthe 1.188788
Ġroom 0.58830416
Ġhe 1.8182379
Ġnoticed 1.7163641
Ġhow 5.205263
Ġnothing 6.956165
Ġwas 1.1964858
Ġquite 3.8644447
Ġcomfortable 5.891583
, 1.8891267
Ġfrom 5.5273447
Ġthe 0.31408307
Ġflickering 7.7889996
Ġlight 2.4865353
, 3.3389199
Ġthe 0.92301434
Ġclock 6.1012783
Ġtick 2.825219
Ġand 2.4897084
Ġthe 0.47891876
Ġchair 6.5454507
Ġwhich 4.431584
Ġpin 9.813284
ched 0.03427982
Ġin 3.6289072
Ġplaces 6.6160913
Ġexcept 10.117584
Ġfor 0.81039715
Ġthe 0.4854761
Ġrep 5.559102
's 2.3549066
Ġchair 4.258456
Ġwhich 1.5336964
Ġlooked 4.687152
Ġdiscrete 10.33351
ly 0.47697434
Ġluxurious 5.7772346
. 0.9631989
Ċ 1.3167425
" 3.7881494
Well 3.6128125
, 1.2417595
Ġthat 3.3822684
's 0.7864256
Ġall 2.6724882
Ġin 5.090537
Ġorder 2.9022217
. 1.8891884
ĠYour 4.9513493
Ġtax 7.973375
Ġforms 3.1159632
Ġare 0.9198051
Ġaltogether 11.294524
, 5.3635364
ĠID 12.026088
Ġchecks 5.7295146
Ġout 4.0797267
Ġand 2.035661
Ġthe 2.4183586
Ġreferees 9.851245
ĠI 6.479542
've 2.3890605
Ġcalled 3.9503992
Ġhave 1.8077106
Ġmostly 8.353203
Ġconfirmed 3.5277069
Ġeverything 3.0618398
" 6.4605103
Ċ 1.909379
" 0.84404147
mostly 14.752674
bytes:\xe2\x80 9.454899
bytes:\xbd 7.5456357
" 0.58489835
Ġexclaimed 7.0870724
Ġthe 0.34482464
Ġapplicant 2.8888984
Ġquizz 8.887063
ically 0.04881037
. 0.7106051
Ċ 0.36678436
" 0.31843215
oh 6.5764837
Ġdon 5.038162
't 0.0213314
Ġfret 5.802975
, 1.2106558
Ġjust 4.1245565
Ġtwo 5.8615165
Ġdidn 10.777433
't 0.016170703
Ġreturn 6.0346036
Ġmy 3.2636693
Ġphone 3.081641
Ġcalls 0.71323824
. 1.7262746
ĠBut 4.1165905
Ġi 7.038252
Ġfollowed 8.818421
Ġup 0.63549155
, 3.93049
ĠThe 9.65804
Ġuh 10.52949
ĠReg 8.898638
urg 8.953492
it 2.0270786
ator 0.044489987
Ġapparently 7.447619
Ġpassed 5.614234
Ġon 3.015006
ĠBlood 12.75963
ĠIsland 7.542987
Ġafter 5.218566
Ġa 2.2502053
Ġrun 5.2376723
Ġin 1.6260811
Ġwith 0.24042532
Ġa 1.0552367
ĠU 8.300191
. 1.8081369
N 2.0801544
. 0.14319585
Ġtask 9.099803
force 2.3857222
Ġsent 5.3826137
Ġto 1.0198499
Ġrecover 4.918853
Ġthe 1.6966225
Ġwar 7.99681
head 2.8461566
Ġyou 6.424123
Ġvery 9.353767
Ġsuccessfully 5.0779533
Ġpur 6.549725
lo 2.841285
ined 0.022841869
Ġfrom 1.4531647
Ġthe 0.93998456
ĠRe 6.9919205
united 8.333151
ĠRepublic 4.93154
Ġof 1.9038932
ĠKorea 5.2700796
. 1.1730163
ĠAs 5.0389924
Ġfor 1.9956626
ĠThe 5.3728294
ĠSt 6.7161417
ink 3.8127356
Ġin 7.9140015
ĠFranc 14.026051
hes 5.398896
c 4.4761977
av 4.0628777
ille 1.1242208
Ġthey 5.045381
Ġvanished 8.820838
Ġthough 6.8656583
ĠI 2.478508
Ġam 4.015097
Ġinformed 4.8414874
Ġthis 4.83604
Ġwas 2.0809438
Ġat 5.6928506
Ġthe 0.9146661
Ġsame 5.375803
Ġtime 0.10009208
Ġone 6.7718534
Ġof 0.36649847
Ġthe 0.81045616
Ġcap 9.53132
ed 3.574357
Ġkinds 10.890067
Ġhad 5.0264225
Ġan 3.1617153
Ġep 4.561411
iphany 0.09840793
Ġabout 2.5416908
Ġthe 1.2977626
Ġnature 4.6574388
Ġof 0.023281148
Ġmurder 7.8625326
Ġand 1.1055635
Ġmorality 8.932102
. 1.5918766
ĠSo 3.5509505
Ġone 5.356896
Ġmakes 8.472365
Ġassumptions 6.696425
Ġbut 3.6683595
Ġother 6.153048
Ġsources 6.8929896
Ġtell 2.8320074
Ġme 1.5110924
Ġyour 5.261623
Ġwork 4.827718
Ġwas 2.1074739
Ġcommend 7.7357774
able 0.102512866
." 2.0741105
Ġthe 4.504358
Ġrepresentative 5.304541
Ġquickly 7.3109493
Ġdrum 9.681902
med 0.056598697
Ġhis 0.6882397
Ġfingers 0.37710387
Ġon 0.578998
Ġthe 0.28223136
Ġdesk 1.0261654
Ġand 1.9413854
Ġappearing 10.5917425
Ġto 1.0485277
Ġconsider 5.241498
Ġsomething 3.3278883
. 1.4919462
Ċ 1.0510734
Time 9.348395
Ġtick 3.2042248
ed 0.02547636
Ġslowly 3.8305085
Ġaway 4.624426
. 1.8897035
Ċ 1.1532122
" 0.5393847
any 6.630293
way 1.1127243
, 0.6989979
Ġback 4.0658336
Ġto 0.119137555
Ġthe 0.81902987
Ġtask 4.6661654
Ġat 4.499077
Ġhand 0.004248067
. 1.0562649
ĠNow 4.4020557
Ġit 4.3356957
's 0.5900351
Ġimportant 5.3991475
Ġfor 2.911802
Ġme 1.5380818
Ġstress 12.605878
Ġthat 2.2988865
Ġthis 2.411008
Ġwill 4.1890583
Ġbe 0.67835623
Ġa 1.1224554
Ġdifferent 6.8075104
Ġarrangement 7.8144917
Ġto 2.9863489
Ġyour 2.9181855
Ġusual 2.1781256
Ġfare 7.1193905
. 1.0417391
ĠFull 9.172328
Ġtime 2.0551956
Ġretain 12.085816
ment 4.067555
Ġwith 2.9875963
Ġloyalty 10.246482
Ġclauses 6.2709575
Ġopposed 11.962706
Ġto 0.3500812
Ġthe 1.7489645
Ġmore 4.89449
Ġfreelance 8.591044
Ġstyle 4.688659
Ġof 1.971041
Ġcontract 5.1981535
Ġyou 1.6145862
Ġare 2.6733956
Ġmore 5.2093167
Ġfamiliar 1.4665504
Ġwith 0.04242974
. 0.61352557
ĠAnnual 10.669206
Ġpay 3.1624374
Ġwill 3.6025562
Ġseem 8.75402
Ġsmaller 6.9200478
Ġthan 2.1981122
Ġa 4.427259
Ġ' 6.1304126
good 5.1282454
Ġyear 4.212453
' 0.2883483
Ġ" 7.0385256
the 5.002033
Ġair 8.105966
Ġquotes 6.360344
Ġwent 5.1926565
Ġun 5.9908133
- 3.153965
gest 8.762664
ured 0.05559023
Ġbut 3.3769765
Ġvery 6.497548
Ġmuch 2.7518413
Ġinf 8.8780155
lected 0.8489653
. 1.3803399
Ġ" 2.504084
but 2.7340736
ĠI 2.7433636
Ġthink 3.6590889
Ġyou 1.3377211
'll 1.2107129
Ġfind 2.178611
Ġthe 2.1032329
Ġreliable 11.6683235
Ġincome 5.885179
Ġand 3.1130693
Ġother 5.9781194
Ġbenefits 0.9328115
Ġmore 4.414227
Ġthan 1.0175438
Ġmake 2.0400848
Ġup 0.030050525
Ġfor 0.08316175
Ġit 1.8590344
". 5.578086
Ċ 0.251526
T 7.121269
ension 3.3723109
Ġin 3.665159
Ġthe 0.20411544
Ġroom 1.6590383
Ġjumped 6.886089
Ġsuddenly 4.724632
Ġas 2.655343
Ġa 2.5559003
Ġchrome 11.713306
Ġrevolver 7.98643
Ġwas 2.3432252
Ġproduce 12.30947
Ġfrom 2.4170887
Ġa 1.4948422
Ġdrawer 2.4121556
Ġin 2.7648768
Ġthe 0.24813053
Ġdesk 2.761359
Ġand 1.3976829
Ġdropped 4.674081
Ġon 2.2796822
Ġthe 0.258591
Ġtable 2.779844
. 0.6943329
ĠThe 1.4394485
Ġapplicant 4.439648
Ġbecame 6.580705
Ġaware 1.8199638
Ġof 0.63736117
Ġa 1.4641811
Ġco 7.6064763
pp 2.0385954
ery 0.032262057
Ġtang 4.878693
Ġto 3.335492
Ġthe 0.3286974
Ġair 1.7406163
Ġand 1.5265306
Ġtried 6.0551453
Ġnot 2.5012836
Ġto 0.017874397
Ġlook 2.0748184
Ġat 1.3204265
Ġthe 0.43037614
Ġwall 7.0102496
Ġbehind 1.9320738
Ġhim 1.2282724
. 0.5549756
Ġ" 3.6201081
now 4.3043694
Ġyou 2.8550935
Ġmay 2.8743632
Ġknow 5.6118727
Ġme 3.148967
Ġas 2.6920311
ĠThe 2.0184216
ĠRec 6.961588
ru 1.1955585
iter 0.09264247
Ġand 2.8015118
Ġof 5.962248
Ġthe 4.0885816
Ġmany 4.313134
Ġthings 2.015442
Ġi 1.9466882
Ġdo 1.8281797
Ġthis 4.9283066
Ġis 1.7930555
Ġmy 2.6770225
Ġtrademark 6.010687
, 2.5804267
Ġyou 3.9421747
Ġdon 4.162741
't 0.004389881
Ġhave 1.8216369
Ġa 3.5684931
Ġsay 4.505641
Ġin 0.42072847
Ġthis 2.4728265
Ġanymore 5.007942
Ġand 3.1053226
Ġit 3.03861
's 0.9863903
Ġup 3.3275423
Ġto 0.021291701
Ġme 1.8909792
Ġaccept 10.60157
Ġyou 3.8421113
Ġfor 4.076251
Ġthe 1.6913091
Ġcontract 4.0838
Ġor 2.854673
... 6.378224
termin 7.751
ate 0.07875023
Ġit 2.54953
Ġbefore 5.381808
Ġit 1.757942
Ġeven 3.861527
Ġbegins 1.0786113
." 2.3099725
