A 3.7921784
Ġyear 5.7749534
Ġof 4.258262
Ġa 5.1536016
Ġdestroy 14.756251
Ġthe 4.3231883
Ġdowntown 9.533297
Ġin 5.0062437
Ġthe 2.393886
ĠDec 9.789019
asia 11.474621
Ċ 4.7443314
ĠThe 14.821279
Ġdown 9.251855
Ġtown 3.0246503
Ġof 2.1992524
ĠDec 1.3595525
asia 0.10784248
Ġis 1.5426435
Ġthe 3.1824555
Ġbig 6.0501084
Ġcity 2.9155836
Ġit 6.107631
Ġhad 5.8352895
Ġmany 7.134296
Ġthe 6.7188506
Ġplaces 5.2943087
Ġto 1.7048343
Ġshop 4.1002555
, 1.9081209
Ġbeginning 13.606766
Ġof 2.7287335
Ġthe 1.0036174
Ġyear 1.8609192
, 1.986298
ĠRose 10.82659
's 4.022262
ĠGiant 9.415824
ĠBout 9.10146
ique 0.10205842
Ġand 2.8231783
ĠHeart 7.957307
land 1.1162843
Ġand 5.6671515
ĠDepartment 9.007957
Ġmoved 11.071547
Ġto 1.5183429
Ġstop 8.94447
Ġthere 3.9939358
. 1.1074213
ĠIt 3.7253208
Ġhad 3.295103
Ġthe 2.6151083
Ġplace 5.222256
Ġto 0.6777891
Ġshopping 7.3752527
. 3.2809076
ĠA 3.9392745
Ġlot 2.3804958
Ġof 0.17871746
Ġcompany 8.663334
Ġand 2.7553065
Ġrestaurant 6.0675836
Ġwanted 6.970084
Ġto 0.2736319
Ġopen 2.2429192
. 3.240134
ĠOn 5.621866
ĠFebruary 4.5276184
, 2.8001351
Ġit 3.4706788
Ġbegan 4.2957
Ġto 0.9566881
Ġhave 3.531209
Ġthe 2.0018737
Ġbad 7.288475
Ġsituation 4.3258967
. 1.1197181
ĠFore 10.35181
Ġexample 9.109773
, 0.5408401
Ġsome 5.2432947
Ġrestaurant 4.18663
Ġfired 8.391314
Ġand 3.1139514
Ġpainted 10.371663
Ġa 3.0710425
Ġpornographic 10.707269
Ġpicture 1.7001566
Ġinto 8.614649
Ġthe 0.6151018
Ġbuilding 4.097644
. 0.76102406
ĠSo 3.9519079
Ġmany 2.7414763
Ġcompanies 4.5165095
Ġmust 8.439204
Ġmove 2.984645
Ġto 1.5249233
Ġthe 1.3188944
Ġsuburbs 4.1562767
Ġbecause 3.190275
Ġthey 1.8864415
Ġhad 2.9881818
Ġworried 9.865352
Ġtheir 5.563095
Ġlife 5.6751366
Ġand 2.9401426
Ġbusiness 2.0043793
. 1.0608277
ĠMany 4.683346
Ġbusiness 3.5097895
, 4.344765
Ġpeople 4.2434373
Ġdemolished 11.005975
Ġthe 1.1554947
Ġwindows 7.218232
Ġfrom 5.512794
Ġthe 0.5612904
Ġstone 9.719102
. 2.3026652
ĠA 3.672535
Ġfurthermore 12.822282
Ġthe 2.967119
Ġmain 5.582296
Ġstress 11.093808
Ġhad 5.2890477
Ġmore 6.046509
Ġthan 1.5635034
Ġforty 8.109739
Ġp 7.996932
oth 3.4233
oles 0.1461713
Ġso 6.464255
Ġthe 2.5887234
Ġdowntown 4.4610066
Ġjust 6.9800024
Ġhad 3.4456437
Ġa 2.072915
Ġless 7.5384316
Ġthe 5.187601
Ġbusiness 4.5161343
Ġand 2.4263644
Ġpeople 2.2460918
Ġstay 7.9113812
. 2.618817
ĠIt 3.3802967
Ġlooks 6.450741
Ġlike 0.6204391
Ġthe 1.1223745
Ġabandoned 9.062251
Ġcity 2.568936
. 2.5351133
