Do 6.9148197
Ġyou 0.7077559
Ġlike 2.8296587
Ġsinging 7.5785446
Ġsongs 3.64824
? 1.142466
ĠI 2.831399
Ġlike 2.3915958
Ġvery 7.6979246
Ġmuch 0.11720956
. 1.7006682
ĠToday 6.5352483
, 1.5685891
ĠI 0.5827459
Ġwent 4.5935273
Ġto 0.24813925
Ġa 1.5578334
Ġk 5.8334045
ara 0.2563275
oke 0.00484923
Ġbox 7.0160255
Ġwith 3.6566408
Ġmy 1.0817604
Ġson 5.6517344
Ġand 1.6430372
Ġna 11.302585
igh 12.4220915
bors 11.611184
. 0.8053559
ĠI 1.5810726
Ġsung 6.105849
Ġso 5.307482
Ġmany 0.45137873
Ġsongs 0.3878431
Ġand 2.256246
Ġbrewed 15.038094
Ġmy 2.9403386
Ġstress 11.005737
. 1.6060919
ĠMy 3.3026648
Ġfavorite 5.8273187
Ġk 3.6632526
ara 0.01796233
oke 0.0049766335
Ġsongs 1.4712577
Ġare 0.38437474
ĠSe 7.309675
iko 5.359362
ĠMats 6.7512264
uda 2.4700148
's 2.3487678
. 3.3222702
ĠHer 6.3441453
Ġsongs 1.1671405
Ġare 0.41011867
Ġeasy 6.5558934
Ġto 0.30693457
Ġsing 0.4492021
, 2.193167
Ġfamiliar 9.004913
Ġwith 5.148984
Ġmany 3.9631164
Ġpeople 1.100721
Ġand 1.4517542
Ġr 8.672471
yt 7.259373
my 5.465325
cal 8.859098
. 1.6933557
ĠI 1.4864624
Ġhad 3.8448088
Ġa 1.3216901
Ġrelaxed 7.810003
Ġtime 1.3936568
. 1.650225
ĠToday 5.4368463
ĠI 1.5888464
Ġmight 7.195901
Ġfall 8.407086
Ġasleep 1.0270505
Ġsoon 5.663202
. 0.43197498
ĠGood 5.3517795
ĠNight 3.4997017
! 1.3933514
