The 2.6440344
ĠPent 9.823978
ec 2.6194077
ost 0.010294157
alist 6.2955265
Ġmovement 2.4206831
, 2.497346
Ġwith 3.1049385
Ġinformation 12.737356
_ 12.076356
technology 4.4498386
Ġstress 12.513932
Ġon 0.4293488
Ġthe 0.95087135
ĠHoly 1.8952762
ĠSpirit 0.098801464
, 0.67867017
Ġspeaking 7.055452
Ġin 0.082961746
Ġtongues 0.036412396
, 0.3712196
Ġand 0.99359447
Ġdivine 2.4798455
Ġhealing 0.06731445
, 0.27898964
Ġhas 1.4015718
Ġlong 4.66588
Ġbeen 0.5979672
Ġdistinguish 10.428418
Ġfrom 7.266071
Ġother 1.7378608
ĠChristian 1.6903154
Ġappell 12.124466
ation 2.7298648
Ġaside 10.848199
Ġinformation 11.440928
_ 0.2900685
technology 0.017455043
Ġalone 9.679306
Ġdoctrine 7.7565846
Ġand 1.9747117
Ġpractices 2.4554343
. 0.41314945
ĠThese 5.077675
Ġdoctr 6.009702
inal 0.008858955
Ġdifferences 1.6199652
Ġhave 1.8728055
, 3.9306812
Ġunfortunately 5.624271
, 0.060284276
Ġprevent 8.460963
Ġmany 2.5297058
Ġdenominations 5.7135134
Ġfrom 0.62636954
Ġfully 3.8240607
Ġrecognizing 3.2603931
Ġthe 0.7145542
Ġauthenticity 7.6601763
Ġof 0.27664265
Ġthe 0.83048433
ĠPent 0.4044562
ec 0.0033148385
ost 0.0010223285
alist 0.5170298
Ġmovement 0.64817333
. 0.5294295
Ċ 2.2231057
One 12.724653
Ġof 0.5823297
Ġthe 0.13824247
Ġidentify 10.9643
Ġdoctr 4.6829844
inal 0.0044205054
Ġdifferences 0.98194396
Ġbet 5.780055
w 0.1234885
ixt 0.0035840336
ĠPent 0.76566637
ec 0.0029098464
ost 0.0012532078
al 0.13960613
Ġcampaign 16.481884
Ġand 0.084586136
Ġother 1.041575
ĠChristian 0.7209148
Ġdenominations 0.96415174
Ġlies 3.8529854
Ġind 10.270226
ium 2.7685688
Ġtheir 2.1077845
Ġunderstanding 1.9384867
Ġand 2.7738638
Ġreceive 9.226114
Ġof 0.37454316
Ġthe 0.4650626
ĠHoly 2.1177912
ĠSpirit 0.1450908
. 0.18456121
Ġunlike 10.775134
Ġer 9.448462
st 0.33631462
while 0.07388221
Ġdenomination 5.073744
Ġwhich 2.985626
Ġmay 5.016352
Ġvisualize 7.9812155
Ġthe 0.22919649
Ġholy 4.828454
_ 5.9517903
place 10.738229
ĠSpirit 1.1497427
Ġas 0.5224211
ĠAssociate 11.47031
_ 13.017456
in 3.7713087
_ 0.95329493
N 9.529665
urs 1.897195
ing 0.0005088302
Ġabstract 6.685047
Ġtheological 5.058008
Ġconcept 1.9494354
, 0.38914758
ĠPent 0.83148503
ec 0.0016291214
ost 0.0018818772
als 2.2114387
Ġbelieve 2.4479146
Ġin 3.1258202
Ġthe 0.93367314
Ġimmediate 5.924182
Ġand 2.2026432
Ġon 5.9856806
- 0.75441796
going 0.007145121
Ġwork 2.4949422
Ġof 0.058216855
Ġthe 0.09222513
Ġholy 1.5893033
_ 0.08104354
place 0.040765174
Ġspirit 3.2113264
Ġind 3.4432712
ium 0.008590818
Ġtheir 1.0251755
Ġlives 0.47749412
. 0.38372964
ĠThey 2.476981
Ġverify 9.448688
Ġthat 2.322621
Ġthe 0.60608846
ĠHoly 1.902108
Ġtone 13.022605
Ġem 10.238753
powers 0.025057323
Ġbeliever 6.5268135
Ġwith 3.5967069
Ġspiritual 2.2081032
Ġgifts 0.42516035
, 1.5197947
Ġallow 8.925273
_ 5.4764137
in 1.7532426
Ġspill 14.987722
_ 2.4624004
the 6.192203
_ 0.23979144
beans 0.014398898
Ġin 4.0986195
Ġtongues 1.1153463
, 0.34879357
Ġprophecy 5.5866427
, 0.12922242
Ġand 0.9539706
Ġhealing 1.6723052
. 0.38856634
ĠThese 3.4336886
Ġunique 5.354926
Ġexpression 7.3047614
Ġof 0.4873827
Ġthe 0.37806144
ĠHoly 1.1452386
Ġspirit 2.0483553
Ġare 1.2059438
Ġseen 4.0131254
Ġby 1.8031876
Ġmany 2.567555
Ġappell 8.049733
ation 0.020668712
Ġvitamin 15.669554
_ 2.1791527
A 3.1967494
Ġexcessive 11.033361
Ġand 3.2321439
Ġunnecessary 2.5841124
, 1.9239224
Ġlead 9.110613
Ġto 1.9987531
Ġdoubt 6.953908
Ġabout 3.5677176
Ġthe 0.18997332
Ġseriousness 5.7304444
Ġand 1.5063567
Ġauthenticity 1.358851
Ġof 0.03200265
Ġthe 0.33304113
ĠPent 0.19004577
ec 0.0019943009
ost 0.0031472966
al 1.679111
Ġmovement 1.3781967
. 0.11172792
Ċ 0.37475243
Furthermore 5.1883135
, 0.015162828
Ġthe 1.1125134
Ġuse 4.994487
Ġof 0.061506297
Ġspeaking 3.6575422
ĠIn 8.569206
Ġtongues 0.07135423
, 1.8955525
Ġknown 5.036795
Ġas 0.6473461
Ġgloss 0.5849932
ol 0.043100357
alia 0.018381713
, 0.2662423
Ġinduce 9.98839
Ġproduce 8.9211
Ġa 1.9930674
Ġdeep 5.043173
Ġdivide 2.2052107
Ġbetween 1.2696822
ĠPent 0.49756193
ec 0.0023947945
ost 0.0013280952
als 1.223641
Ġand 0.115012445
Ġother 0.6759285
ĠChristian 0.5983121
Ġdenominations 0.8216996
. 0.098534465
Ġpiece 12.527262
Ġapproximately 10.205394
Ġdenominations 4.078398
Ġinterpret 5.499722
Ġspeaking 2.4873362
Ġind 5.893096
ium 0.00028708015
Ġtongue 4.3776603
Ġvitamin 5.456479
_ 0.023514265
A 0.07806177
Ġan 3.4267356
Ġancient 4.8446703
Ġphenomenon 4.823076
Ġthat 1.9088737
Ġinduce 8.012141
Ġceased 3.6306472
Ġto 2.6981616
Ġexist 0.58171415
, 0.7267894
ĠPent 0.17540888
ec 0.0015297402
ost 0.0005183628
als 0.18040106
Ġview 3.3786309
Ġit 1.594298
Ġas 0.4749993
Ġvitamin 4.0992603
_ 0.0011069943
A 0.010683571
Ġco 10.166964
et 3.565314
aneous 0.06748641
Ġend 6.6997943
ow 2.421211
Ġfrom 3.6371028
Ġthe 0.6578924
Ġholy 1.3647032
_ 0.07565607
place 0.012502584
ĠSpirit 1.0807288
. 0.6591446
ĠThis 2.5971837
Ġdeviation 8.276846
ĠIn 6.8513923
Ġunderstanding 3.2818155
Ġhas 2.3379776
Ġled 2.1272888
Ġto 0.3574546
Ġskepticism 5.1993804
Ġand 1.3734072
Ġoutright 4.5975175
Ġrejection 1.1807523
Ġof 0.4619708
ĠPent 1.6096464
ec 0.002004415
ost 0.0016479224
al 0.19307885
Ġpractices 3.709491
, 2.8907866
Ġwith 3.937892
Ġmany 1.8921059
Ġdenomination 1.6486976
Ġsee 5.608638
Ġthem 2.1807656
Ġanti 11.006443
oph 9.73299
thal 0.112407744
mic 0.0029087735
_ 8.151084
factor 1.1083342
Ġevidence 5.6920385
Ġof 0.39776915
Ġemotional 5.0555534
ism 1.1904407
Ġor 3.1979012
Ġevening 15.344733
Ġdi 4.9732
abolic 0.93865895
Ġinfluence 1.851245
. 0.07814258
Ċ 0.27788928
Additionally 5.265315
, 0.018525649
Ġthe 0.91674685
ĠPent 1.1472867
ec 0.0034048979
ost 0.0009876733
alist 1.4994903
Ġemphasis 3.3993778
Ġon 0.07421674
Ġdivine 0.62209725
Ġcur 9.339679
ative 0.004815769
Ġas 4.4520345
Ġvitamin 4.9066095
_ 0.00086834846
A 0.0060682716
Ġcentral 5.184846
Ġaspect 2.411598
Ġof 0.07610513
Ġtheir 1.2600068
Ġfaith 1.6356162
Ġstimulate 8.405262
Ġfurther 4.168906
Ġisolated 10.573727
Ġthe 2.1596675
Ġmovement 0.6292966
Ġfrom 0.43625423
Ġother 0.5370356
Ġdenominations 2.0558405
. 0.080914035
ĠWhile 2.3600924
Ġall 4.197911
ĠChristians 2.9260445
Ġbelieve 1.1339844
Ġind 4.3753934
ium 0.00015109812
Ġthe 0.79240173
Ġpower 0.7328961
Ġof 0.084585145
Ġprayer 2.4991395
Ġand 1.263037
Ġthe 1.2035489
Ġpossibility 4.798841
Ġof 0.08286771
Ġdivine 0.7124011
Ġhealing 0.80787975
, 0.04076071
ĠPent 1.0751202
ec 0.0013060719
ost 0.00017255111
als 0.3206714
Ġhave 3.3126993
Ġa 2.0970109
Ġferv 6.105666
ent 0.0989819
Ġbelief 1.0726737
Ġthat 1.822127
Ġdeity 9.529528
Ġcan 1.6857806
Ġmirac 5.391254
ulously 0.0020850701
Ġheal 0.73812175
Ġany 2.378089
Ġail 2.6767392
ment 0.041963518
. 0.9590025
ĠThis 1.263499
Ġfirm 6.8188066
Ġconviction 2.3276305
Ġhas 1.3795875
Ġlead 2.1404843
Ġto 0.4965792
Ġunfavorable 9.759286
_ 9.080143
jud 7.1137586
gment 0.24679923
Ġfrom 0.97377694
Ġother 0.67332613
Ġdenominations 1.4550917
, 1.0293584
Ġwho 1.3391411
Ġaccuse 5.7852097
ĠPent 0.4348269
ec 0.0010952115
ost 0.0003036458
als 0.2578713
Ġof 0.08107587
Ġbeing 2.2039595
Ġoverly 2.4722643
Ġreliant 2.7517676
Ġalong 11.314034
Ġfaith 8.576991
Ġcur 5.2393193
ative 0.0047613108
Ġand 0.8740643
Ġdisreg 6.9859686
arding 0.025871044
Ġthe 1.5543565
Ġgrand 11.470647
ness 2.7062268
Ġof 0.22726265
Ġmedical 1.4217771
Ġscience 0.55899084
. 0.15909782
Ċ 0.35705066
Ultimately 6.2802978
, 0.010801028
Ġthese 2.1143126
Ġdoctr 0.8065894
inal 0.0002966128
Ġdeviation 6.5543303
Ġprevent 4.890526
Ġthe 1.7790744
ĠPent 0.4183779
ec 0.003775739
ost 0.00056208856
al 0.71024305
Ġcampaign 1.3101656
Ġfrom 0.117935486
Ġrepresent 10.6123
Ġrecognized 4.0437374
Ġas 0.93343544
Ġlegitimate 3.8103614
Ġby 2.8415608
Ġmany 1.4891992
Ġdenomination 2.6177068
Ġdue 6.771152
Ġto 0.072060704
Ġa 3.6309743
Ġlack 1.5629057
Ġof 0.040759336
Ġunderstanding 1.7327583
, 3.366939
Ġfear 5.0694637
Ġof 1.2113397
Ġthe 0.85426915
Ġunknown 0.436063
, 0.036805663
Ġand 0.23581156
Ġa 2.3707078
Ġhope 9.167616
Ġto 1.6800648
Ġmaintain 1.7508906
Ġlong 6.165068
- 0.23743722
held 1.5820327
Ġtraditions 1.3110489
Ġand 2.300044
Ġbeliefs 1.141951
. 0.044338875
ĠThe 2.9880774
Ġunfamiliar 8.701001
Ġpractices 2.4087634
Ġand 1.1500108
Ġacute 9.285536
Ġspiritual 4.340028
Ġexperience 2.4188404
Ġassociate 6.2876134
Ġwith 0.6254239
ĠPent 1.1515359
ec 0.0037975847
ost 0.0011611733
al 0.10213547
ism 1.2649469
Ġhave 1.8406055
Ġraised 6.3470736
Ġsuspicions 3.6895742
Ġand 1.2202721
Ġskepticism 3.2334638
, 2.007339
Ġleading 2.8946364
Ġmany 2.1745439
Ġdenominations 1.8665663
Ġto 0.06656779
Ġview 3.2955122
Ġthe 0.8344906
Ġmovement 0.873539
Ġas 0.23485664
Ġoutdoors 12.123425
Ġthe 0.59683883
Ġbounce 13.179403
Ġof 0.12855092
Ġorthodox 2.410995
ĠChristianity 0.29318422
. 0.08999635
Ċ 1.3751465
In 3.522812
Ġconclusion 3.1461267
, 0.008381595
Ġthe 0.6627344
Ġdoctr 2.8456774
inal 0.000839404
Ġdifferences 0.7579303
Ġbet 1.3951907
w 0.0006153396
ixt 0.00068431813
ĠPent 0.40886754
ec 0.0019810952
ost 0.00040302498
al 0.09908502
Ġmovements 6.222671
Ġand 0.06344335
Ġother 0.19622795
ĠChristian 0.30164865
Ġappell 3.1689165
ation 0.014307351
Ġhave 1.4582087
Ġhindered 4.9601746
Ġthe 0.39727432
Ġrecognition 2.5011353
Ġand 1.4157792
Ġacceptance 0.91859496
Ġof 0.030124744
Ġpent 6.953009
ec 0.025406849
ost 0.00088465743
al 0.07345398
ism 0.9325224
Ġas 0.7605535
Ġlegitimate 3.228402
Ġdig 12.618322
ression 0.9082623
Ġmany 11.342629
. 5.308184
ĠThe 1.7062336
Ġfocus 4.6217113
Ġon 0.17295314
Ġthe 0.5946151
ĠHoly 0.68880713
ĠSpirit 0.62693304
's 5.566447
Ġact 6.6981764
uate 4.9754105
Ġwork 4.6913376
, 1.36808
Ġthe 1.7159548
Ġexercise 8.020884
Ġof 0.09455679
Ġspeaking 0.6617203
Ġin 0.30705523
Ġtongues 0.053004604
, 0.058038358
Ġand 0.083177544
Ġthe 0.31457114
Ġemphasis 1.8176085
Ġalong 7.6647463
Ġdivine 0.91652066
Ġhealing 0.982057
Ġhave 1.141499
Ġcaused 2.6782176
Ġskepticism 3.771038
, 2.4075608
Ġmisunderstanding 3.9008927
, 0.036398143
Ġand 0.085039966
Ġrejection 1.6189561
. 2.0584416
ĠIt 3.7727876
Ġis 0.519628
Ġof 5.331545
_ 7.41005
import 1.5796635
Ġfor 1.7701296
Ġwholly 12.888334
ĠChristian 1.1153213
Ġto 4.025313
Ġengage 6.1945076
Ġind 4.819128
ium 0.00027158734
Ġrespectful 5.441345
Ġdialog 2.6604881
Ġand 1.3007272
Ġstrive 6.209424
Ġfor 1.7971356
Ġunity 2.9385138
, 1.9869752
Ġunderstanding 3.755245
, 0.12240268
Ġand 0.03888061
Ġadoption 9.800049
Ġof 0.65395164
Ġunlike 9.859016
Ġdoctr 3.2973466
inal 0.0015504523
Ġperspectives 3.3673468
, 2.611945
Ġspot 12.668969
Ġthat 3.8166518
Ġdespite 6.09795
Ġour 2.4262004
Ġdifferences 0.42562014
, 0.44202006
Ġour 3.5723393
Ġdiv 8.318426
vy 5.468922
_ 5.998871
up 0.32973003
Ġfaith 5.106657
Ġin 1.3378171
ĠJesus 0.9316295
ĠChrist 0.4552955
Ġshould 3.5825408
Ġbe 1.5900136
Ġthe 1.1834358
Ġsource 5.7249465
Ġof 0.097977236
Ġour 0.3517486
Ġunity 0.53770393
. 0.46193597
