Introduction 7.649731
: 2.508201
Ċ 1.040635
Registered 19.578194
Ġnurses 2.8961837
Ġ( 1.1358149
RN 0.038151193
s 0.15187038
) 0.055115048
Ġplay 3.2782283
Ġvitamin 17.697657
_ 14.477109
A 8.95306
Ġcrucial 9.182027
Ġcharacter 10.78561
Ġin 0.7189638
Ġthe 1.1113504
Ġever 10.136156
- 0.6389054
ev 1.7882302
olving 0.0026016992
Ġhealthcare 2.3228488
Ġsystem 1.249568
, 2.1510227
Ġserving 4.000214
Ġas 0.4074159
Ġadvocates 5.895125
, 1.3838743
Ġcaregivers 3.6046765
, 0.43238524
Ġeducators 4.154005
, 0.4036325
Ġand 0.65649337
Ġleaders 3.2321067
. 0.90213674
ĠAs 3.381499
Ġhealthcare 3.5432224
Ġbecome 8.226113
Ġprogressively 7.038902
Ġcomplex 4.3742404
Ġand 1.2709447
Ġtechnology 5.0121684
- 2.703393
driven 0.96034884
, 0.101794004
Ġquest 13.390289
_ 5.6320033
for 1.883943
Ġa 6.0921583
ĠBachelor 10.21982
's 1.8199892
Ġlevel 6.5696216
Ġin 1.0507935
Ġbreast 10.775924
feed 7.5959578
Ġhas 5.1206827
Ġbecome 0.537356
Ġan 2.434851
Ġimportant 2.6472855
Ġstep 3.9264488
Ġin 1.3044739
Ġpreparing 3.7992558
Ġperson 10.416601
Ġto 1.4346738
Ġsuccessfully 5.6138353
Ġlend 9.530844
Ġto 4.99274
Ġthe 0.8448747
Ġprofession 4.668884
. 0.5942003
ĠThis 1.8787555
Ġessay 4.8402567
Ġwill 1.4453279
Ġdiscuss 2.2301102
Ġthe 0.6228292
Ġevolving 8.258674
Ġrole 1.4694103
Ġof 0.14129156
Ġregistered 2.4994066
Ġbreast 12.368186
feed 0.6184967
Ġin 4.190809
Ġthe 0.83335894
Ġmodern 4.3060713
Ġhealth 3.5415354
_ 5.2749267
care 0.19107924
Ġsystem 1.0843036
Ġand 1.4692887
Ġexpl 9.328486
icate 0.37275478
Ġwhy 3.653466
Ġpursuing 9.869168
Ġvitamin 8.972169
_ 0.7387616
A 0.049032524
ĠBachelor 8.15441
's 0.072343074
Ġdegree 0.67208785
Ġin 2.1927433
Ġnursing 0.92792195
Ġconstitute 8.595159
Ġan 1.576758
Ġessential 1.9163897
Ġpathway 6.0384035
Ġtowards 2.2141306
Ġcome 12.49102
ly 3.668063
Ġa 5.662339
Ġprofessional 4.4236736
Ġnurse 4.11835
. 0.4029387
Ċ 0.6110556
Body 15.19741
: 2.2214394
Ċ 1.4885103
1 3.8501673
. 0.29042417
ĠAdv 9.283492
ancing 1.99301
ĠHealthcare 6.2963448
ĠDelivery 6.456345
: 1.4059209
Ċ 1.3002162
In 2.647615
Ġthe 1.1050987
Ġmodern 2.6428282
Ġhealthcare 0.85094154
Ġsystem 0.74550235
, 0.17802498
Ġregistered 4.4254317
Ġnurses 0.14607449
Ġinduce 13.444511
Ġwitnessed 10.997431
ĠAssociate 13.3407
_ 4.2425346
in 2.672936
_ 0.026342215
N 2.387402
urs 0.13322045
ing 0.020379424
Ġevolution 12.507471
Ġin 2.5079181
Ġtheir 2.8520637
Ġrole 3.0154204
Ġas 1.5260568
Ġthey 7.412368
Ġassume 5.026941
ĠMore 9.8301525
Ġresponsibilities 2.9260654
Ġand 1.7575601
Ġare 3.1184478
Ġintegral 6.562107
Ġplayers 4.41501
Ġin 0.3376048
Ġhealthcare 3.587694
Ġteams 6.0920095
. 0.42131937
Ġvitamin 11.70507
_ 0.030242382
A 0.046675783
ĠBachelor 3.9258468
's 0.1843007
Ġdegree 0.49330002
Ġind 10.865954
ium 9.13889
Ġnursing 6.394657
Ġsupply 8.754101
Ġa 4.784956
Ġcomprehensive 6.1240664
Ġsympath 13.4357195
ize 3.1674857
Ġof 1.9855909
Ġhealthcare 4.0483284
Ġrescue 12.609392
Ġmodels 7.297984
, 1.4865451
Ġevidence 7.4920473
- 0.9001133
based 0.03488749
Ġpractice 2.9773462
, 0.452792
Ġand 0.50724655
Ġcontemporary 5.636699
Ġhealthcare 3.1222947
Ġissues 5.136653
. 0.9057839
ĠThis 3.2854595
Ġcognition 11.512877
Ġequ 7.6642175
ips 0.51622206
Ġnurses 1.9805845
Ġto 0.551852
Ġcover 7.9032173
Ġthe 1.5157075
Ġchallenges 5.2899647
Ġposed 4.049645
Ġaside 11.531699
Ġan 4.9850874
Ġaging 4.8194094
Ġpopulation 1.0847799
, 1.3204339
Ġcontinuing 8.928927
Ġdiseases 9.992624
, 0.4665708
Ġand 0.43786144
Ġhealth 4.504898
_ 1.8327243
care 0.065867454
Ġdisparities 6.4662285
Ġeffectively 10.534266
. 0.36323684
Ċ 0.81492954
2 0.45933887
. 0.0055854297
ĠEnhanced 7.4743223
ĠCritical 7.003065
ĠThinking 3.1269107
ĠSkills 1.506423
: 0.13849689
Ċ 0.014101685
The 2.580327
Ġcomplexity 5.9936213
Ġof 0.17157842
Ġmodern 1.3719805
Ġhealthcare 0.38748544
Ġdemands 2.2089572
Ġbreast 9.155588
feed 0.4295161
Ġwith 5.824856
Ġstrong 7.1371326
Ġcritical 1.3493663
Ġthinking 0.24093723
Ġskills 0.24956566
. 0.5241105
ĠA 3.7050228
ĠBachelor 2.612363
's 0.25490594
Ġdegree 0.4034246
Ġprogram 7.4559374
Ġstress 11.584495
Ġthe 2.2094111
Ġdevelopment 4.587234
Ġof 0.09052167
Ġanalytical 4.6994157
Ġabilities 3.8873396
, 1.2675959
Ġproblem 3.3267255
- 0.8119351
s 0.024930233
olving 0.002604672
Ġtechniques 3.964725
, 0.052148506
Ġand 0.3263617
Ġevidence 5.091656
- 0.13277045
based 0.03410527
Ġdecision 1.490217
- 0.75468224
making 0.0102833
. 1.661612
ĠThese 3.8488336
Ġskill 4.338455
Ġenable 6.30877
Ġbreast 6.0596313
feed 0.14093192
Ġto 1.287326
Ġcover 4.844057
Ġthe 1.1627002
Ġrapidly 6.3968716
Ġchange 6.507026
Ġhealth 7.136027
_ 0.45532247
care 0.011957239
Ġenvironment 3.3932002
, 1.7567054
Ġassess 5.4989767
Ġpatient 4.002924
Ġneeds 2.2650065
Ġhol 9.75489
istically 0.008118526
, 0.17448208
Ġand 0.40873912
Ġparticipate 6.2456913
Ġin 0.35467878
Ġmaking 7.943361
Ġinformed 3.0639868
Ġclinical 3.2687511
Ġjudgments 4.7450757
. 0.34294954
Ċ 0.47185034
3 0.087078005
. 0.00235781
ĠLeadership 5.470768
Ġand 2.0850458
ĠManagement 2.51189
ĠOpportun 5.549823
ities 0.002439386
: 0.0243545
Ċ 0.004164234
N 2.7574425
urses 0.85018396
Ġwith 4.0382657
Ġa 0.90674675
ĠBachelor 0.50632733
's 0.08964025
Ġdegree 0.40580198
Ġin 0.87917554
Ġnursing 0.45975864
Ġare 2.0903792
Ġwell 3.898055
- 1.385373
pre 1.9647596
pared 0.003254835
Ġto 0.3035828
Ġassume 2.754568
Ġleading 4.1739945
Ġroles 0.71059525
ĠIn 9.5514
Ġhealthcare 1.9800148
Ġsettings 4.994522
. 0.6370745
Ġtake 10.960722
_ 4.265585
in 6.113302
Ġcourse 9.715588
work 3.4663646
Ġin 3.419831
Ġbreast 4.4730306
feed 0.46258792
Ġdirection 9.1390295
Ġand 1.7897971
Ġleadership 2.7305427
Ġequ 9.25015
ips 0.37001863
Ġthem 2.4988341
Ġwith 3.534279
Ġskills 3.1208518
Ġnecessary 3.2410026
Ġfor 1.5193062
Ġgood 6.618267
Ġcommunication 4.012286
, 1.0320425
Ġdelegation 6.1209517
, 0.17013916
Ġand 0.37558103
Ġinter 6.3739634
disciplinary 1.5380335
Ġcollaboration 1.8047235
. 0.27963895
Ġvitamin 7.3716626
_ 0.009778641
A 0.061138213
Ġhealthcare 9.017129
Ġsystems 8.156195
Ġincreasingly 4.6485047
Ġrecognize 5.2153664
Ġthe 0.96903473
Ġvalue 2.808825
Ġof 0.06968119
Ġnurse 2.9008412
Ġdrawing 12.76956
_ 6.5945816
card 7.2617564
Ġind 10.453809
ium 0.3830547
Ġimproving 10.816155
Ġpatient 3.1828446
Ġoutcomes 2.1143506
Ġand 1.4888613
Ġpromoting 4.1616707
Ġflower 15.344222
Ġcare 4.592329
, 2.455794
Ġquest 13.166754
_ 0.14184193
for 0.09528437
Ġa 0.5581799
ĠBachelor 0.9666773
's 0.028087923
Ġdegree 0.60928714
Ġem 12.747433
powers 0.8346931
Ġnurses 0.42279872
Ġto 0.12025269
Ġcontribute 4.351782
Ġto 0.6284381
Ġthe 1.1941885
Ġgrowth 4.1119757
Ġand 1.9834821
Ġimplementation 6.2713585
Ġof 0.03211602
Ġinnovative 2.9413369
Ġhealth 2.7342348
_ 0.5872274
care 0.016522724
Ġstrategies 3.1804376
. 0.41767615
Ċ 0.37237385
4 0.21692005
. 0.0018868727
ĠPatient 5.555578
ĠAdvoc 3.3761556
acy 0.041359328
Ġand 1.6139072
ĠEducation 2.8204365
: 0.06225145
Ċ 0.004166607
Registered 3.8727207
Ġnurses 0.09073016
Ġhave 2.6045175
Ġalways 5.1598597
Ġbeen 0.8132869
Ġinvolved 3.4900641
Ġin 0.37078714
Ġaffected 11.208647
_ 3.229976
role 10.383076
Ġadvocacy 5.139817
, 1.741148
Ġbut 3.431687
Ġtheir 2.5047436
Ġcharacter 9.878642
Ġin 3.77405
Ġthis 2.3380964
Ġsphere 4.0213165
Ġhas 0.8255618
Ġluc 14.828228
ub 3.5327907
rate 2.750269
Ġind 8.133428
ium 0.06227072
ĠHol 11.122872
ocene 9.80798
Ġyears 6.896531
. 1.0581831
ĠWith 4.2780204
Ġa 1.8587902
Ġgrowing 5.473181
Ġemphasis 5.0356326
Ġon 0.1600342
Ġpatient 2.0174963
- 3.765849
centered 0.37419757
Ġcare 1.6345707
, 0.45801276
Ġnurses 1.8797348
Ġmust 3.3787363
Ġpossess 5.8744535
Ġthe 1.829669
Ġskills 2.125664
Ġand 2.8621602
Ġknowledge 2.1378224
Ġto 0.6397557
Ġeducate 4.9846873
Ġpatients 1.3108538
, 1.3288571
Ġfamilies 2.7402914
, 0.039212856
Ġand 0.36933324
Ġresidential 11.907746
_ 3.4970808
dist 5.258138
rict 0.38177335
Ġapproximately 10.590922
Ġhealth 3.2982678
Ġpromotion 7.036883
, 1.3624239
Ġprevention 3.45
, 0.07386185
Ġand 0.1707773
Ġdisease 3.468002
Ġmanagement 1.3646468
. 0.3083396
ĠA 3.5996795
ĠBachelor 0.9358841
's 0.05197355
Ġdegree 0.07908906
Ġin 0.5350243
Ġbreast 2.530722
feed 0.105932355
Ġenhances 5.582717
Ġnurses 0.9863172
' 0.47752255
Ġability 1.8033472
Ġto 0.036185693
Ġpass 7.3089013
_ 5.3689413
on 1.28677
Ġeffectively 7.8270826
, 2.6055498
Ġprovide 5.110183
Ġevidence 4.235098
- 0.18392292
based 0.02947262
Ġeducation 4.7245517
, 0.29830134
Ġand 0.15772265
Ġadvocate 2.9320982
Ġfor 0.39226997
Ġpatients 2.068695
' 2.2751117
Ġrights 1.5931641
Ġand 1.8086212
Ġdesires 5.4055276
. 0.23429565
Ċ 0.57320297
5 0.45863563
. 0.002251957
ĠResearch 4.316628
Ġand 0.87799436
ĠEvidence 6.5174074
- 0.2616078
Based 0.074950814
ĠPractice 0.27376306
: 0.050176226
Ċ 0.004369121
The 2.1326098
ĠBachelor 8.480342
's 0.1850129
Ġdegree 0.17920177
Ġcurriculum 6.4202847
Ġincorporates 7.6644945
Ġinquiry 8.596407
Ġand 1.8428538
Ġevidence 3.0508006
- 0.17362897
based 0.034795266
Ġpractice 0.99764115
, 1.9518026
Ġlaying 8.325551
Ġthe 0.99203384
Ġfoundation 0.91523814
Ġfor 0.16822016
Ġnurses 1.802602
Ġto 0.35263914
Ġuse 4.7243853
Ġcurrent 5.4727397
Ġknowledge 1.8204724
Ġind 10.310147
ium 0.095622
Ġdelivering 10.240321
Ġhigh 4.308405
- 0.5493939
quality 0.10793475
Ġcare 1.8540257
. 0.8131171
ĠBeing 8.016883
Ġcapable 5.728969
Ġto 1.9669526
Ġcritically 4.2586975
Ġappra 3.6628494
ise 0.03506556
Ġresearch 3.1747384
Ġfindings 2.6412988
Ġand 1.023017
Ġimplement 4.5263042
Ġevidence 1.6674321
- 0.09687839
based 0.021308418
Ġinterventions 3.6468744
Ġimproves 5.783793
Ġaffected 12.485863
_ 0.08234241
role 0.04896589
Ġoutcomes 5.1706877
Ġand 1.2994468
Ġcontributes 3.4867773
Ġto 0.15316305
Ġthe 1.3478417
Ġprogression 5.5209584
Ġof 0.067951076
Ġthe 2.8427384
Ġnursing 3.9202623
Ġprofession 0.9652091
. 0.38745582
ĠAdditionally 6.4602976
, 0.019647371
Ġa 2.0890164
ĠBachelor 1.1292912
's 0.04909131
Ġr 12.039236
aze 7.9482727
Ġequip 12.033013
Ġnurses 0.15964821
Ġwith 0.8736946
Ġthe 0.9589498
Ġskills 1.287039
Ġnecessary 1.945686
Ġto 0.28395048
Ġactively 6.336281
Ġtake 5.527012
_ 2.5589333
part 5.226256
Ġin 0.18005462
Ġinquiry 7.4900365
Ġstudies 2.4715104
, 0.8269477
Ġunderstand 7.045545
Ġresearch 3.3204317
Ġfindings 3.0477781
Ġinto 8.144838
Ġpractice 4.1431975
. 6.7926335
Ċ 0.35432184
6 0.29463568
. 0.0016463838
Ġcareer 11.103146
Ġprogress 7.216093
Ġand 1.8993108
ĠFlex 11.404264
ibility 0.12689503
: 0.03446766
Ċ 0.004891689
P 6.723296
urs 0.10408111
uing 0.13395202
Ġa 0.23559336
ĠBachelor 0.35572222
's 0.07612898
Ġdegree 0.1907415
Ġin 0.29746288
Ġnursing 0.5360743
Ġopens 5.1801405
Ġdoors 3.5793421
Ġto 0.55803746
Ġdivers 6.607045
Ġcareer 12.113288
Ġopportunities 1.1744359
Ġinside 8.156583
Ġand 1.8263538
Ġbeyond 3.0986273
Ġtraditional 6.79221
Ġhealthcare 1.3533372
Ġsettings 2.4490247
. 0.15310627
Ġbreast 7.9724784
feed 0.035023905
Ġwith 3.8987358
Ġvitamin 7.4969034
_ 0.071335144
A 0.08900992
ĠBachelor 2.411717
's 0.03413626
Ġdegree 0.03641596
Ġare 6.064946
Ġeligible 4.8736405
Ġfor 1.215354
Ġpositions 4.1464686
Ġsuch 3.3876834
Ġas 0.047355216
Ġbreast 8.051124
feed 0.44807595
Ġeducators 6.9194202
, 0.2615697
Ġclinical 3.5500846
Ġnurse 2.4618723
Ġspecialists 0.9278069
, 0.10195088
Ġand 1.4024401
Ġadvanced 4.465312
Ġpractice 1.8795258
Ġregistered 2.9629984
Ġnurses 0.34321716
, 2.6713555
Ġadmit 14.646128
Ġnurse 5.752003
Ġpractitioners 2.3784764
, 0.22224261
Ġcertified 4.980787
Ġnurse 1.0878713
- 3.3262248
mid 0.03768521
wives 0.16577634
, 0.09335341
Ġand 0.7840394
Ġclinical 3.9455624
Ġnurse 1.616936
Ġleaders 5.6051965
. 0.19246884
ĠAdditionally 3.8103933
, 0.012887832
Ġa 2.5750027
ĠBachelor 0.5785893
's 0.037411135
Ġdegree 0.27859327
Ġprovides 3.6781776
Ġa 3.3389382
Ġstepping 4.635418
Ġstone 1.492233
Ġtowards 1.8690238
Ġquest 8.558786
_ 0.046515238
for 0.020108398
Ġadvanced 7.8607574
Ġdegrees 4.331185
ĠIn 4.4643936
Ġnursing 0.8944322
, 1.6177536
Ġupgrade 11.946349
Ġenhancing 9.841004
Ġcareer 4.027944
Ġpossibilities 4.0764937
Ġand 1.9155362
Ġprofessional 6.177315
Ġgrowth 1.9606638
. 0.39588267
Ċ 0.39280468
Conclusion 3.1335433
: 0.05727316
Ċ 0.039799914
As 3.8034887
Ġthe 1.4975885
Ġhealthcare 1.7314626
Ġlandscape 4.839006
_ 9.036183
pain 10.638384
ting 2.607212
Ġcontinue 6.1515036
Ġto 0.2825604
Ġevolve 0.7767297
, 0.31838888
Ġthe 1.9849356
Ġrole 1.7180899
Ġof 0.06594358
Ġregistered 0.47909933
Ġnurses 0.53161573
Ġinduce 11.53228
Ġtransform 7.465061
Ġfrom 6.831661
Ġentirely 9.915996
Ġproviding 6.7332716
Ġbed 6.753112
side 0.4948149
Ġattention 6.499071
Ġto 0.3863525
Ġencomp 9.221853
assing 0.010940644
Ġleadership 7.754466
, 1.6171858
Ġeducation 3.6098795
, 0.04029663
Ġadvocacy 2.8647838
, 0.053348232
Ġand 0.30691698
Ġresearch 2.96285
. 1.3310807
ĠPurs 9.618481
uing 0.11346189
Ġa 0.2641354
ĠBachelor 0.26076016
's 0.06448778
Ġdegree 0.06159641
Ġin 0.2462973
Ġnursing 0.32169712
Ġis 2.1090207
Ġan 1.0788617
Ġessential 0.30771875
Ġstep 2.183185
Ġtowards 1.0345294
Ġbecoming 2.6738677
Ġa 0.40072963
Ġprofessional 2.0823848
Ġnurse 0.332132
Ġbecause 7.159816
ĠIT 8.287106
Ġequ 7.795795
ips 0.067765385
Ġperson 8.138071
Ġwith 2.3619237
Ġthe 0.8761332
Ġnecessary 2.747686
Ġknowledge 2.390472
, 1.4255414
Ġskills 0.40375015
, 0.040220816
Ġand 0.1366716
Ġcompetence 5.210844
Ġto 0.3816071
Ġrun 6.4932756
_ 3.655036
into 6.984504
Ġthe 1.2444063
Ġnecess 11.255347
itate 1.9970405
Ġof 1.3542699
Ġthe 1.7791685
Ġmodern 1.2208434
Ġhealth 1.7986407
_ 0.049022872
care 0.009943663
Ġsystem 0.9753244
. 0.20513012
ĠBy 5.441799
Ġembracing 6.1205044
Ġthe 1.008958
Ġdegree 7.692915
, 1.4136335
Ġsuck 13.22954
le 2.9477906
Ġpost 8.270899
Ġthemselves 11.864845
Ġto 2.3215332
Ġpositively 6.04189
Ġimpact 1.1445954
Ġpatient 4.6010146
_ 2.2624161
role 10.725475
Ġoutcomes 0.7915411
, 1.3748453
Ġpromote 3.950945
Ġinnovation 5.8446283
, 0.4852202
Ġand 0.28621742
Ġcontribute 3.322442
Ġto 0.24224263
Ġthe 0.62791777
Ġadvancement 2.724781
Ġof 0.055585947
Ġbreast 5.4863033
feed 0.21102451
Ġvitamin 11.6485405
_ 0.10476635
A 0.054027125
Ġa 4.964424
Ġprofession 3.430335
. 0.21317835
ĠTherefore 7.0416746
, 0.05950385
Ġthe 2.3432887
Ġav 8.754189
ocation 2.636152
Ġof 0.34367108
Ġa 2.1823344
ĠBachelor 0.6328022
's 0.09319226
Ġlevel 4.92607
Ġin 0.19703634
Ġnursing 0.9659549
Ġis 1.2274126
Ġnot 3.7188945
Ġmerely 4.005724
Ġimportant 5.546156
Ġbut 3.0002708
Ġnecessity 6.2820864
Ġin 3.1422684
Ġpreparing 5.215024
Ġbreast 6.4273763
feed 0.061882757
Ġto 2.0012798
Ġdeliver 6.1932716
Ġsafe 6.279403
, 0.82114047
Ġeffective 1.9181141
, 0.256156
Ġand 0.30854768
Ġcompassionate 2.5096662
Ġattention 8.901582
Ġin 3.3808656
Ġtoday 4.425248
's 0.04036212
Ġhealth 2.5783324
_ 0.0730269
care 0.014589579
Ġenvironment 1.7326125
. 0.050385386
