The 2.5806708
ĠSyn 10.256203
opt 4.129649
ic 0.13291168
ĠG 1.4573313
ospels 0.00066477974
Ġof 3.1551018
ĠMatthew 0.52890235
, 0.61740166
ĠMark 0.15154456
, 0.3863631
Ġand 0.67246604
ĠLuke 0.047473226
, 2.4733307
Ġas 3.0847764
Ġwell 0.57571435
Ġas 0.0052323407
Ġthe 0.49955556
ĠGospel 1.6992693
Ġof 0.040936824
ĠJohn 0.9725004
, 0.23370263
Ġare 1.4192761
Ġall 3.876596
Ġessential 6.113821
Ġtexts 2.4048991
Ġind 14.730026
ium 12.559835
Ġunderstanding 9.298986
Ġthe 1.8556086
Ġlife 4.221961
Ġand 0.9255891
Ġteachings 1.5541308
Ġof 0.028521318
ĠJesus 0.09238546
ĠChrist 0.94011533
. 0.37304318
ĠAlthough 4.8571744
Ġthey 2.0317907
Ġshare 3.2732952
Ġcoarse 14.168879
Ġthemes 6.452549
, 1.1158864
Ġthere 4.368205
Ġare 0.3443698
Ġdistinct 3.8227086
Ġdifferences 0.9951037
Ġbet 6.9993415
w 1.7480075
ixt 1.1740737
Ġthe 1.1063006
ĠSyn 2.192576
opt 0.030011266
ics 1.3981509
Ġand 1.8146725
Ġthe 0.5522085
ĠGospel 1.5523996
Ġof 0.14212191
Ġtoilet 17.701612
Ġthat 4.7136884
Ġinduce 10.780642
Ġfar 7.8037825
seeing 8.361282
Ġcapt 11.21828
ivated 3.9241405
Ġbiblical 7.834881
Ġscholars 1.0045304
. 2.3151777
ĠThe 2.0557418
Ġrandom 11.46544
_ 10.729925
variable 8.071087
Ġbetween 6.975949
Ġthese 2.5809941
Ġtexts 1.8650362
Ġhold 8.982954
Ġsignificant 5.1211996
Ġimplications 2.3353715
Ġfor 0.6291567
Ġour 2.9676003
Ġunderstanding 0.8398873
Ġof 0.13498735
ĠJesus 2.0819173
_ 9.910366
of 6.416518
_ 0.33701137
Naz 3.130886
areth 0.0067575285
Ġand 1.624814
Ġthe 1.2113397
Ġearly 3.590593
ĠChristian 2.0984862
Ġcommunity 2.219397
. 0.6671005
Ċ 1.4756832
One 14.370888
Ġof 1.0267595
Ġthe 0.11092462
Ġmost 1.2375343
Ġapparent 6.2529593
Ġsimilarities 4.468403
Ġbetween 0.66417086
Ġthe 0.25468612
Ġsyn 2.7504253
opt 0.022497794
ic 0.3822288
ĠG 1.3261875
ospels 0.00048845366
Ġand 0.9452334
Ġthe 0.18935509
ĠGospel 0.39447632
Ġof 0.039171696
ĠJohn 0.8445205
Ġis 0.32763913
Ġtheir 2.3412552
Ġfocus 3.6418047
Ġon 0.1632659
ĠJesus 1.1854771
' 2.108688
Ġlife 2.7081633
, 2.598415
Ġministry 2.2353826
, 0.047689307
Ġdeath 2.151711
, 0.104049854
Ġand 0.30358738
Ġresurrection 0.1427752
. 0.17100398
ĠBoth 2.5460129
Ġdress 12.825093
Ġof 6.1358867
ĠG 6.754214
ospels 0.026758855
Ġpresent 4.255741
Ġa 1.7958806
Ġnarrative 3.8375058
Ġof 1.1565804
ĠJesus 0.5458437
' 0.28069776
Ġbirth 4.7182665
, 0.583123
Ġhis 2.9829333
Ġinstruction 7.7524457
Ġand 2.2575192
Ġmiracles 4.2843056
, 0.25767654
Ġhis 0.71950084
Ġbetrayal 4.7473965
, 1.119442
Ġcrucifix 3.3207502
ion 0.004041595
, 0.12986688
Ġand 0.44838178
Ġresurrection 0.75263745
. 0.29338124
ĠThey 3.6406028
Ġconvey 7.0580816
Ġexchange 13.840501
able 3.6958826
Ġthemes 3.8977377
Ġof 1.5707576
Ġlove 3.8382978
, 0.55216414
Ġcompassion 2.9621012
, 0.04621684
Ġand 1.2281407
Ġforgiveness 1.4045438
, 1.471108
Ġand 1.782892
Ġhighlight 4.761758
ĠJesus 1.6909398
_ 4.1863794
of 0.3215738
_ 0.008615755
Naz 0.010986755
areth 0.0036864134
Ġanti 12.601197
oph 9.380963
thal 5.311774
mic 0.304682
_ 6.107175
factor 6.5007095
Ġthe 6.1655593
ĠSon 7.1779366
Ġof 0.33661026
ĠGod 0.20264918
. 0.96937484
Ċ 2.6565328
However 6.038017
, 0.024879303
Ġthe 1.0857497
ĠSyn 2.4026809
opt 0.0029073467
ic 0.45831704
ĠG 0.15359303
ospels 0.00013727049
Ġand 3.0285177
Ġthe 0.29671428
ĠGospel 0.12383045
Ġof 0.012263101
ĠJohn 0.038618334
Ġdiffer 1.4291345
Ġgreatly 2.5109494
Ġin 0.44492206
Ġtheir 1.2057612
Ġapproach 3.7891533
, 5.256908
Ġstructure 3.226814
, 0.032759506
Ġand 0.25670493
Ġcontent 1.7124052
. 0.17786224
ĠThe 1.2641795
ĠSyn 1.1835687
opt 0.002612521
ics 1.559876
, 3.2053683
ĠMatthew 5.408579
, 0.36436006
ĠMark 0.95670176
, 0.011876792
Ġand 0.058784094
ĠLuke 0.013095415
, 2.5007405
Ġare 2.599307
Ġoften 4.9501886
Ġreferred 2.3843083
Ġto 0.031957738
Ġas 0.20741917
Ġ" 1.3961656
syn 2.977884
opt 0.0920116
ic 0.15556756
" 1.1054783
Ġdue 5.6555924
Ġto 0.04387944
Ġtheir 0.6945518
Ġshare 7.4676995
Ġmessage 11.81317
Ġand 2.314653
Ġsimilar 4.4295273
Ġnarrative 4.0684233
Ġstructure 0.6799558
. 0.30664656
ĠThey 3.2020636
Ġare 1.7915535
Ġnotably 8.938896
Ġbrief 5.9354424
er 1.208631
, 1.9889627
Ġfocusing 4.528841
Ġmore 2.1378531
Ġon 0.23083091
ĠJesus 0.8116138
' 0.27569625
Ġactions 4.75644
, 1.7543821
Ġpar 5.393955
ables 0.08307607
, 0.05973442
Ġand 0.45125595
Ġteachings 2.575566
, 1.7172302
Ġand 1.4922731
Ġless 0.8258228
Ġon 0.22527245
Ġhis 0.9599791
Ġinterior 6.7756834
Ġthoughts 5.210242
Ġand 0.6451341
Ġemotions 5.060643
. 0.12895158
ĠThere 4.9323187
Ġis 0.97781855
Ġbesides 12.907175
Ġa 1.7915136
Ġsignificant 3.4316525
Ġoverlap 3.4074066
Ġin 1.1937484
Ġthe 1.1760209
Ġstories 5.0590253
Ġand 1.8255769
Ġevents 3.244413
Ġthey 3.009502
Ġcover 4.252646
. 0.9695142
Ċ 2.6027455
On 4.9933085
Ġthe 0.14182724
Ġother 0.43244696
Ġhand 0.051863316
, 0.013579558
Ġthe 0.1950994
ĠGospel 0.096641935
Ġof 0.011209916
Ġtoilet 14.415549
Ġstands 7.784561
Ġisolated 8.530083
Ġfrom 1.569857
Ġthe 0.38580686
ĠSyn 0.61085665
opt 0.0012184517
ics 0.497143
Ġin 2.2968984
Ġinformation 9.198349
_ 6.496702
technology 7.9945707
Ġdistinct 9.4981
Ġtheological 8.391239
Ġposition 6.3287125
Ġand 1.6289603
Ġnarrative 3.7967782
Ġstyle 4.577625
. 0.2782669
ĠJohn 4.35245
's 1.3539509
Ġreligious 9.179444
_ 7.3126884
do 7.8193316
ct 0.06486837
rine 0.0062808213
Ġemphasizes 5.343399
Ġthe 1.3310771
Ġdiv 4.3334103
inity 0.028147154
Ġof 0.24819568
ĠJesus 0.237621
Ġand 1.5801183
Ġdemo 15.543533
Ġvitamin 12.67498
_ 4.2075787
A 10.312881
Ġmore 6.854934
Ġmystical 6.3878193
Ġand 2.8587823
Ġabstract 4.6842256
Ġapproach 5.4161463
Ġto 0.74502206
Ġthe 1.5866442
Ġanimation 13.003607
Ġof 1.1815286
ĠChrist 3.6207778
. 1.3848492
Ġinformation 14.311692
_ 0.08175641
technology 0.25414488
Ġfocuses 8.859945
Ġon 0.6363056
ĠJesus 1.3797675
Ġas 3.6131368
Ġthe 1.3085186
ĠWord 4.5290394
Ġmade 4.1115513
Ġflesh 0.03603449
, 0.83026725
Ġstress 12.30526
Ġhis 3.3885033
Ġeternal 5.406195
Ġuniverse 10.660847
Ġand 2.2798107
Ġhis 2.5509167
Ġpre 6.506977
- 1.0408787
existence 0.43365034
Ġwith 3.2599783
ĠGod 1.5022035
. 0.94692934
ĠThis 3.1281574
Ġtheological 4.557989
Ġemphasis 3.1135383
Ġis 1.5309584
Ġnot 3.1125681
Ġconspic 10.700487
uously 0.011374594
Ġfound 3.2621193
Ġin 0.17838348
Ġthe 0.32064423
ĠSyn 0.18992579
opt 0.0019515875
ic 1.3586756
ĠG 0.11861299
ospels 0.00012475411
. 0.85964143
Ċ 1.2473146
The 1.9328345
ĠGospel 1.1693019
Ġof 0.026470521
ĠJohn 0.4655094
Ġalso 3.390396
Ġincludes 4.1540656
Ġunique 5.248395
Ġstories 3.8139966
Ġand 1.2859612
Ġteachings 3.077327
Ġthat 1.8665191
Ġare 1.0704088
Ġabsent 2.7370753
Ġin 1.185177
Ġthe 0.17949669
ĠSyn 0.22225004
opt 0.0011111628
ic 1.085106
ĠG 0.11645936
ospels 5.8126592e-05
. 0.51829517
ĠFor 2.5187535
Ġinstance 1.4515433
, 0.022377852
ĠJohn 1.9130592
Ġadmit 16.599768
Ġthe 2.5977652
Ġwedding 8.868235
Ġast 13.066077
at 5.4986963
ine 4.281816
ĠCan 11.951741
a 0.22129871
, 1.7297091
Ġthe 1.8149627
Ġraise 10.801556
Ġof 0.61188716
ĠLazarus 2.362989
, 0.3395452
Ġand 0.5683703
Ġthe 0.4997677
Ġconversation 7.853035
Ġwith 0.8375455
ĠNic 3.419005
od 0.016178418
em 0.021099515
us 0.013925477
, 2.1735008
Ġwholly 11.523666
Ġof 5.010742
Ġwhich 4.9906054
Ġprovide 9.074867
Ġsignificant 5.803008
Ġtheological 4.379318
Ġinsights 1.8791043
. 0.8660686
ĠIn 2.6533012
Ġcontrast 1.9900297
, 0.24323186
Ġthe 0.4770779
ĠSyn 0.32926548
opt 0.004817669
ics 1.6300157
Ġfocusing 9.7860985
Ġon 0.63580346
ĠJesus 0.6651268
' 0.49594855
Ġteachings 3.594165
Ġabout 3.533533
Ġthe 1.232894
Ġkingdom 2.747989
Ġof 0.40183344
ĠGod 0.18838611
Ġand 1.2038702
Ġthe 1.1871625
Ġfulfillment 7.7756376
Ġof 0.035942495
ĠJewish 4.969927
Ġprophecy 1.8585175
. 2.4072175
Ċ 1.9290155
These 4.2872295
Ġvariations 5.3419
Ġbetween 2.6843529
Ġthe 0.25492904
ĠSyn 0.2631899
opt 0.0012583261
ic 0.7140538
Ġreligious 11.2583475
_ 0.91536105
do 0.028495837
ct 0.018951986
rine 0.0020793593
Ġand 0.3196386
Ġthe 0.34575245
Ġreligious 9.57367
_ 0.11290558
do 0.030050721
ct 0.0029899476
rine 0.00072720577
Ġof 0.122378424
Ġtoilet 9.839618
Ġpose 7.3580766
Ġconcern 7.322646
Ġimplications 8.036601
Ġfor 0.2998447
Ġbiblical 4.563234
Ġscholarship 1.9287047
. 0.6977669
ĠFirstly 6.4378195
, 0.01313482
Ġthey 2.7534747
Ġraise 3.4934418
Ġquestions 0.9795549
Ġabout 0.74908584
Ġthe 0.51852804
Ġauthors 5.212334
hip 0.06845327
Ġand 1.9857049
Ġorigins 5.49971
Ġof 0.023480725
Ġthese 2.2482533
Ġtexts 1.1239407
. 0.3600123
ĠThe 2.007458
Ġsimilarities 5.565866
Ġbetween 0.8887548
Ġthe 0.43248147
ĠSyn 0.36291462
opt 0.0020837625
ic 0.33026272
ĠG 0.28540158
ospels 0.000104496816
Ġhave 7.3969493
Ġled 1.5162481
Ġscholars 1.85851
Ġto 0.102548696
Ġaim 10.521167
Ġthe 4.122008
Ġexistence 6.6506596
Ġof 0.091026574
Ġa 0.99373007
Ġconject 11.8810625
ural 0.3635436
Ġsource 4.1464753
Ġcalled 6.5054646
Ġ" 1.7368226
Q 4.7431417
," 2.3429732
Ġfrom 5.061365
Ġwhich 0.69073397
Ġthey 2.3802083
Ġabsorb 12.192072
Ġcommon 7.0111814
Ġmaterial 5.054414
. 2.112362
ĠHowever 2.2439275
, 0.014228971
Ġthe 1.5431718
ĠGospel 2.756989
Ġof 0.03701109
ĠJohn 0.59473294
's 3.0143
Ġdistinct 6.2445817
Ġnature 4.931426
Ġtip 12.153168
Ġmany 5.908477
Ġscholars 0.75602597
Ġto 0.5690455
Ġquestion 2.4163547
Ġwhether 1.6713605
Ġinformation 7.075717
_ 0.030385198
technology 0.028519358
Ġhad 4.9077663
Ġa 2.1525552
Ġdifferent 6.119733
Ġauthors 3.4946046
hip 0.09823433
Ġoperating 11.988992
_ 5.874876
room 7.7131166
Ġif 7.736005
Ġit 1.7738616
Ġreflects 7.826229
Ġa 1.3794063
Ġlater 3.9659286
Ġtheological 4.6842136
Ġdevelopment 3.1981158
. 0.6949943
Ċ 1.985125
Furthermore 3.96231
, 0.0038304757
Ġthe 0.74642324
Ġdifferences 2.5244374
Ġin 1.5180285
Ġcontent 2.3489208
Ġand 1.2866087
Ġstyle 1.8518583
Ġbet 5.2843466
w 0.01707378
ixt 0.00058996753
Ġthe 0.26064903
ĠSyn 0.23581702
opt 0.0015529519
ics 1.1850716
Ġand 0.050953686
Ġthe 0.25051072
Ġreligious 9.508438
_ 0.06939128
do 0.005468302
ct 0.003638796
rine 0.0025490276
Ġof 0.15511227
Ġtoilet 0.42569163
Ġoblig 10.316162
e 0.24382102
Ġus 2.9098346
Ġto 0.03471559
Ġsee 5.834448
Ġthe 1.2839624
Ġintended 9.736867
Ġaudiences 4.670164
Ġand 1.8889921
Ġpurposes 2.3688407
Ġof 0.23972587
Ġthese 0.6604154
Ġtexts 0.6376322
. 0.8794069
ĠThe 1.5245153
Ġsyn 3.7554603
opt 0.025852337
ic 0.04718796
ĠG 0.42682832
ospels 8.530503e-05
Ġlook 8.217919
Ġto 1.0207039
Ġbe 4.2772665
Ġaimed 3.3752565
Ġast 11.488149
at 0.09840612
ine 0.008735481
Ġa 4.3505855
ĠJewish 3.5077748
Ġaudience 0.4481071
, 0.8493817
Ġhighlighting 6.496741
ĠJesus 0.7880243
' 0.36401933
Ġrole 4.460864
Ġvitamin 15.5439205
_ 0.14406395
A 0.16656707
Ġthe 3.8578856
Ġlong 8.144197
- 1.7694907
awaited 1.7614919
ĠMessiah 1.203446
Ġand 1.6010077
Ġthe 2.1645832
Ġfulfil 5.6069784
ment 0.016472189
Ġof 0.026567215
ĠJewish 0.96332437
Ġprophecy 0.17124891
. 0.11439894
ĠThe 1.3112307
ĠGospel 0.47166002
Ġof 0.017907353
ĠJohn 0.38010812
, 1.5251166
Ġon 0.43115264
Ġthe 0.006204408
Ġearly 11.554741
Ġhand 10.4264145
, 0.36997086
Ġlook 5.6492047
Ġto 0.4013104
Ġbe 0.20891638
Ġmore 4.633273
Ġuniversal 5.2350845
Ġind 13.666821
ium 0.33114576
Ġits 6.6997066
Ġapproach 7.081857
, 1.9222071
Ġappealing 6.5321107
Ġto 0.14646594
Ġa 1.867432
Ġbroader 2.200664
Ġaudience 1.2110672
Ġand 2.1046977
Ġstress 8.890651
ĠJesus 3.2969465
' 0.4094697
Ġrole 3.4349046
Ġas 1.1345901
Ġthe 0.55359584
Ġdivine 3.797236
ĠSon 1.9504106
Ġoperating 11.201668
_ 0.12944552
room 0.015049055
ĠWord 8.092457
. 2.1801124
Ċ 1.089841
Additionally 4.9030757
, 0.008356298
Ġthe 0.55091155
Ġvariations 7.027658
Ġin 1.3095524
Ġnarration 6.863731
Ġstructure 4.0323806
Ġand 1.7743897
Ġtheological 4.8798428
Ġemphasis 2.0229623
Ġbesides 10.304338
Ġcall 8.174136
Ġinto 1.793506
Ġquestion 0.18902841
Ġthe 0.44378486
Ġhistorical 3.8954992
Ġaccuracy 2.0848181
Ġof 0.20141052
Ġthese 1.2219505
Ġtexts 0.30084038
. 0.3850633
Ġscholar 11.99728
Ġinduce 11.2921715
Ġdebated 9.847828
Ġwhether 1.1337402
Ġthe 0.78720325
ĠSyn 1.7575442
opt 0.001298331
ic 0.24723473
Ġreligious 5.539022
_ 0.058334373
do 0.0051780203
ct 0.004789073
rine 0.0033330144
Ġoperating 11.124386
_ 0.02451585
room 0.029504104
Ġthe 3.3970935
ĠGospel 0.7740313
Ġof 0.048784707
Ġtoilet 4.8531523
Ġprovide 7.4702935
Ġvitamin 12.308457
_ 0.055060226
A 0.08271089
ĠMore 10.368123
Ġauthentic 4.0111446
Ġtheatrical 9.884813
_ 3.8248394
performance 5.1971917
Ġof 1.4025369
ĠJesus 0.93739253
' 1.7423136
Ġanimation 11.051404
Ġand 2.3000638
Ġteachings 4.0572395
. 1.4599688
ĠSome 3.8223162
Ġargue 3.5462017
Ġthat 0.31040436
Ġthe 0.618459
ĠSyn 1.3159521
opt 0.0021101707
ics 2.1790578
, 3.3191755
Ġconstitute 12.534685
Ġcloser 7.196298
Ġind 6.4019337
ium 0.19124375
Ġmeter 12.484669
Ġto 0.83476853
ĠJesus 4.608444
, 2.8842351
Ġoffer 7.8924084
Ġa 1.3649595
Ġmore 0.66006553
Ġhistorically 3.577262
Ġreliable 4.2976303
Ġaccount 2.1437495
. 2.2320714
ĠOthers 1.8062121
Ġpropose 5.8971386
Ġthat 0.40842104
ĠJohn 3.666569
's 0.9382826
ĠGospel 1.3186436
, 2.9106717
Ġwith 4.977476
Ġits 0.37505242
Ġalone 11.180279
Ġtheological 4.696682
Ġinsights 6.308447
, 0.3700906
Ġreflects 5.254225
Ġa 0.8059028
Ġdeeper 5.6472898
Ġsympath 10.548901
ize 3.312561
Ġof 1.5145315
ĠJesus 1.9323509
' 1.16646
Ġteachings 1.8106962
. 1.6307724
Ċ 0.97468776
In 2.8147125
Ġconclusion 1.3943833
, 0.014963916
Ġthe 0.90173954
Ġsyn 3.2321513
opt 0.0042532696
ic 0.018778615
ĠG 0.19128503
ospels 9.865584e-05
Ġand 1.3464259
Ġthe 0.1691992
ĠGospel 0.14131318
Ġof 0.006847388
ĠJohn 0.44388726
Ġshare 3.269955
Ġcommon 2.9687352
Ġthemes 2.0041487
Ġand 0.82382536
Ġnarrative 3.6864674
Ġabout 10.48252
ĠJesus 0.7408936
' 1.103727
Ġlife 0.5493777
, 0.45789737
Ġteachings 3.895812
, 0.06640996
Ġdeath 2.3061323
, 0.14923458
Ġand 0.111191966
Ġresurrection 0.17790614
. 0.44501805
ĠHowever 1.2195997
, 0.018131334
Ġthey 1.5986885
Ġdiffer 0.5346047
Ġind 8.699809
ium 0.62771016
Ġtheir 3.4086657
Ġapproach 1.8949594
, 0.19220681
Ġstructure 0.119955204
, 0.061915696
Ġand 0.14817607
Ġtheological 7.081636
Ġemph 4.5925894
ases 0.015114692
. 0.37380284
ĠThe 1.8407428
Ġvariations 6.223417
Ġbet 3.2192268
w 0.008364099
ixt 0.0012483277
Ġthese 1.439659
Ġtextbook 14.482066
Ġhave 4.0495434
Ġprofound 4.356002
Ġdeduction 14.828
Ġfor 3.804817
Ġbiblical 1.0668825
Ġscholarship 1.2138987
, 1.8589983
Ġinviting 6.7103496
Ġus 1.2929553
Ġto 0.054021705
Ġinquiry 9.809328
Ġauthors 8.605385
hip 0.018459417
, 1.7830149
Ġintended 7.094247
Ġaudience 2.0000615
, 0.14663942
Ġand 0.27719247
Ġhistorical 3.6863725
Ġaccuracy 0.17594261
. 0.4504867
ĠUltimately 7.0339885
, 0.0434369
Ġthese 2.352099
Ġdifferences 1.0545403
Ġcontribute 5.7567167
Ġto 0.26906973
Ġvitamin 10.84962
_ 0.15382612
A 0.14531578
Ġnuanced 9.045531
Ġunderstanding 2.114685
Ġof 0.14459535
ĠJesus 1.0675313
ĠChrist 2.5205636
Ġand 0.96320444
Ġthe 0.600158
Ġer 11.335325
st 2.239975
while 0.028934492
ĠChristian 2.085
Ġcommunity 0.12781201
. 0.26408294
