Introduction 7.5032105
: 2.7003784
Ċ 1.1506985
In 9.548939
Ġthe 1.6440195
Ġhealthcare 9.714236
Ġfield 2.365669
, 0.31758383
Ġethical 8.6320505
Ġprinciples 3.067493
Ġserve 4.981028
Ġas 0.25770086
Ġguidelines 2.4066057
Ġto 1.5385413
Ġensure 2.3454115
Ġthe 1.907457
Ġwell 3.5295498
- 0.21256806
being 0.010943129
Ġof 0.12700334
Ġpatients 0.7782932
Ġand 1.1020304
Ġmaintain 4.54771
Ġa 2.0701625
Ġstrong 4.6334805
Ġnurse 6.933005
- 0.170116
patient 0.110468686
Ġrelationship 0.05193855
. 0.112232454
ĠTwo 6.3997717
Ġkey 4.592498
Ġprinciples 2.7809293
, 2.613776
Ġbenefic 1.5346195
ence 0.0017218653
Ġand 0.05689753
Ġnon 0.045028046
- 0.92692137
mal 0.01875063
ef 0.000845147
ic 0.00058466673
ence 0.008392848
, 0.14761642
Ġunderscore 8.668627
Ġthe 0.57913524
Ġduty 4.420407
Ġof 0.589621
Ġhealthcare 2.1406412
Ġprofessionals 0.8247285
Ġto 0.10027512
Ġprovide 2.0229597
Ġcare 1.6481386
Ġthat 1.1624193
Ġpromotes 3.2079024
Ġthe 0.796871
Ġpatients 4.752368
' 0.07451668
Ġbest 3.0623899
Ġinterests 0.58295256
Ġwhile 2.5769415
Ġavoiding 1.2892524
Ġharm 0.54757094
. 0.4306938
ĠThis 3.4019532
Ġessay 3.8176186
Ġaims 3.8756566
Ġto 0.017167732
Ġdiscuss 2.168845
Ġthese 3.0290484
Ġethical 1.5794053
Ġprinciples 0.09051622
Ġin 1.6960887
Ġthe 0.93150693
Ġcontext 0.40108383
Ġof 0.0034893423
Ġa 2.3722034
Ġscenario 3.6889508
Ġwhere 2.3782241
ĠMr 6.646563
. 0.11093916
ĠNew 9.34985
comb 3.529237
Ġrequests 4.626
Ġto 2.0896919
Ġmeet 6.36183
Ġhis 2.7629187
Ġmistress 11.560318
. 2.9689825
ĠBy 6.708432
Ġevaluating 4.2150946
Ġthe 0.58980113
Ġdecision 4.8465056
Ġto 2.6525853
Ġgrant 1.552447
Ġhis 2.2050133
Ġrequest 0.076674774
, 0.5752958
Ġwe 1.5157486
Ġwill 0.54119915
Ġexplore 1.8417009
Ġthe 0.68860954
Ġpotential 3.4987993
Ġconsequences 2.40128
Ġon 4.3931537
ĠMr 2.5850284
. 0.002379642
ĠNew 0.022262651
comb 0.012829382
's 0.45503533
Ġwell 2.962837
- 0.042854644
being 0.0015173877
Ġand 0.7270155
Ġthe 0.662917
Ġnurse 0.70389223
- 0.2751393
patient 0.0064463955
Ġrelationship 0.014158136
. 0.16696446
Ċ 0.43570095
Benef 1.790206
ic 0.00050564454
ence 0.00059963536
Ġin 4.9542627
ĠHealthcare 2.2156699
: 0.5481511
Ċ 0.06302945
Benef 1.1519876
ic 0.0010536597
ence 0.00040653892
Ġrefers 2.2037523
Ġto 0.0038981335
Ġthe 0.78499055
Ġact 4.2005854
Ġof 0.0941284
Ġpromoting 3.2078028
Ġthe 1.253463
Ġwell 0.8876083
- 0.027101621
being 0.0012700403
Ġof 0.08135906
Ġindividuals 4.4564047
Ġand 1.891276
Ġacting 5.0158815
Ġin 0.32344607
Ġtheir 0.12057277
Ġbest 0.06087621
Ġinterests 0.44484815
. 0.3739823
ĠIn 1.6842126
Ġhealthcare 1.4503871
, 0.15881352
Ġthis 1.4341911
Ġprinciple 1.2647581
Ġis 1.1366699
Ġessential 3.8740883
Ġfor 2.1710162
Ġproviding 2.6807675
Ġhigh 2.849325
- 0.85832965
quality 0.003684832
Ġcare 0.51962674
. 1.9258004
ĠNurs 1.7571454
es 1.7236207e-05
Ġhave 2.2344759
Ġa 0.6138745
Ġduty 0.9547288
Ġto 0.040547203
Ġassess 4.6693807
, 3.0218153
Ġplan 1.4027525
, 0.1704666
Ġand 0.8528248
Ġimplement 0.7693004
Ġinterventions 1.7585646
Ġthat 0.6803249
Ġpositively 5.1560674
Ġimpact 0.76896083
Ġpatient 1.9943538
Ġhealth 1.4862641
. 1.0724978
ĠUnder 6.8414493
Ġbenefic 3.8323712
ence 0.010443393
, 0.047405828
Ġethical 6.0402207
Ġdecision 3.1467085
- 0.52200687
making 0.0076995306
Ġentails 3.9494727
Ġpriorit 4.191561
izing 0.010439598
Ġpatients 3.033945
' 0.050582655
Ġhealth 2.319309
Ġand 0.8804096
Ġwelfare 2.213527
Ġabove 2.2185357
Ġother 2.6530263
Ġconsiderations 1.7655402
. 0.5329723
Ċ 1.5096086
Non 5.30587
- 0.028382273
Mal 0.65125966
ef 0.0001889155
ic 0.00039115347
ence 0.0019265651
Ġin 0.19293167
ĠHealthcare 0.015875436
: 0.020841178
Ċ 0.018338948
Non 0.33824408
- 0.009171233
mal 0.04872838
ef 0.00012000537
ic 0.00032610405
ence 0.0011295627
, 2.153354
Ġclosely 7.100409
Ġrelated 0.6374667
Ġto 0.010211293
Ġbenefic 0.78108877
ence 0.00056808547
, 0.020109117
Ġemphasizes 3.5024214
Ġthe 0.31568074
Ġduty 1.2945452
Ġto 0.88449377
Ġdo 2.580121
Ġno 0.018205643
Ġharm 0.0024757185
. 0.5013068
ĠIt 2.33327
Ġasserts 6.6143885
Ġthat 0.13749528
Ġhealthcare 0.94864976
Ġprofessionals 0.34781304
Ġshould 0.7596852
Ġrefrain 2.0019724
Ġfrom 0.0016111122
Ġinterventions 5.255974
Ġor 2.794763
Ġactions 1.411786
Ġthat 0.035848547
Ġmay 1.3863856
Ġresult 2.8953407
Ġin 0.007108003
Ġunnecessary 4.592417
Ġsuffering 3.6982462
Ġor 0.62019527
Ġinjury 2.2716715
. 0.71804726
ĠHealthcare 5.2798667
Ġproviders 1.4389565
Ġmust 1.8056104
Ġassess 4.5794578
Ġthe 0.95852447
Ġpotential 0.9811689
Ġrisks 1.1538906
Ġassociated 2.6757817
Ġwith 0.013581626
Ġvarious 4.0544205
Ġtreatments 2.4806237
Ġor 2.1566038
Ġinterventions 1.0006211
Ġto 1.7144274
Ġavoid 1.5078592
Ġcausing 1.1177588
Ġharm 0.49428278
Ġto 0.542949
Ġpatients 0.38845474
. 0.054880157
Ċ 0.7463774
The 2.552643
ĠSc 3.1427872
enario 0.002859766
Ġand 3.6246786
Ġthe 2.3248928
ĠDecision 1.9919302
Ġto 1.4308131
ĠGrant 1.072083
ĠMr 0.81372505
. 0.004752744
ĠNew 0.0042845784
comb 0.01708709
's 0.013382988
ĠRequest 0.047472328
: 0.0810895
Ċ 0.015592534
In 3.0816405
Ġthe 0.93295354
Ġpresented 5.5151696
Ġscenario 0.16100793
, 0.01352562
ĠMr 0.17250377
. 0.00067896076
ĠNew 0.010955725
comb 0.00201615
Ġrequests 1.1010305
Ġto 0.18582278
Ġmeet 0.14490043
Ġhis 0.5753882
Ġmistress 0.07286145
. 1.5054826
ĠWhile 3.4996097
Ġhis 2.6238863
Ġrequest 0.5527589
Ġmay 1.0002812
Ġinitially 4.1924944
Ġseem 0.6787352
Ġunrelated 4.590231
Ġto 0.025941823
Ġtraditional 8.452426
Ġhealthcare 1.4817756
, 2.169094
Ġit 0.94004935
Ġis 1.7001488
Ġcrucial 3.906799
Ġto 0.3848955
Ġanalyze 3.3473382
Ġthis 2.680669
Ġsituation 0.95410514
Ġthrough 2.1039019
Ġan 1.5117726
Ġethical 0.026404688
Ġlens 0.10706296
, 4.027201
Ġencomp 7.378642
assing 0.0068275863
Ġbenefic 1.6049595
ence 0.0005945075
Ġand 0.02888277
Ġnon 0.0023713377
- 0.004280689
mal 0.0034779182
ef 7.279122e-05
ic 0.00039795213
ence 0.0007539364
. 0.16450924
ĠGrant 6.059188
ing 5.7293146e-05
Ġhis 1.5256763
Ġrequest 0.028437708
Ġcould 1.7449778
Ġhave 1.6730804
Ġsignificant 3.0474432
Ġimplications 0.9822379
Ġfor 1.0472438
Ġboth 2.5763943
ĠMr 0.32834458
. 0.00049002067
ĠNew 0.002214814
comb 0.0038934066
's 0.6589895
Ġwell 0.7287347
- 0.0062665604
being 0.0009843901
Ġand 0.07015128
Ġthe 0.115868635
Ġnurse 0.2806563
- 0.0061382717
patient 0.0016620395
Ġrelationship 0.003974609
. 0.073542565
Ċ 0.47519603
Consider 4.5113797
ations 0.84254056
Ġfor 0.6742333
ĠGrant 1.9832793
ing 8.531094e-05
Ġthe 1.3423797
ĠRequest 0.024135133
: 0.09137164
Ċ 0.028273253
1 3.5576007
. 0.20003405
ĠPotential 3.2323763
Ġpsychological 6.075656
Ġbenefits 1.9848837
Ġfor 1.9359244
ĠMr 0.05438794
. 0.0052398206
ĠNew 0.0010934623
comb 0.0012718304
: 0.5974979
Ċ 0.48434958
Ġ 11.097214
Ġ 2.0438778
Ġ- 7.688456
ĠMeeting 1.810211
Ġhis 0.5171031
Ġmistress 0.07019987
Ġmay 0.7371714
Ġprovide 1.7638522
Ġemotional 3.0521176
Ġsupport 1.3666764
, 2.5683134
Ġreducing 4.2409024
Ġstress 2.0371797
Ġlevels 2.937246
Ġand 0.5497415
Ġenhancing 3.772828
Ġhis 1.0103991
Ġoverall 1.2986573
Ġwell 0.7215459
- 0.0030883139
being 0.00063452503
. 0.19924058
Ċ 0.497821
Ġ 2.1865737
Ġ 0.057365537
Ġ- 0.031377938
ĠIncreased 5.9673553
Ġemotional 3.677661
Ġwell 2.6422458
- 0.003899091
being 0.0004944342
Ġcan 4.367658
Ġhave 3.2915459
Ġa 0.6667915
Ġpositive 0.24899983
Ġeffect 1.9225441
Ġon 0.009453936
Ġmental 6.5219965
Ġhealth 0.32243225
, 0.83901614
Ġpotentially 2.1786666
Ġleading 2.849867
Ġto 0.006895762
Ġa 1.8048848
Ġquicker 5.401541
Ġrecovery 0.16150819
Ġor 4.59529
Ġa 2.4143178
Ġmore 2.2666144
Ġpositive 0.6540291
Ġoutlook 0.66759866
. 1.2559198
Ċ 0.07356925
2 0.491379
. 0.0026465086
ĠEth 6.850491
ical 0.021916658
Ġchallenges 5.6622367
Ġand 3.2490535
Ġpotential 1.0802802
Ġconsequences 1.9727485
: 1.1610252
Ċ 0.058684807
Ġ 0.10386734
Ġ 0.012266789
Ġ- 0.02771907
ĠIt 4.082219
Ġraises 7.173921
Ġconcerns 2.9678087
Ġregarding 1.2673482
Ġprofessional 3.3745959
Ġboundaries 0.12302063
Ġbetween 4.466946
Ġnurses 2.9325843
Ġand 0.010124704
Ġpatients 0.16576001
, 1.6564245
Ġpotentially 2.1808884
Ġcompromising 3.0107377
Ġthe 0.20368767
Ġnurse 0.45631745
- 0.009298044
patient 0.0022804663
Ġrelationship 0.01739842
. 0.17523727
Ċ 0.12851112
Ġ 0.16171052
Ġ 0.007840333
Ġ- 0.0020381275
ĠGrant 3.512916
ing 3.5477948e-05
Ġthe 0.807253
Ġrequest 0.019428154
Ġmay 0.66475505
Ġset 3.484385
Ġa 0.15090999
Ġprecedent 0.34922114
Ġfor 0.45479158
Ġfuture 1.4756075
Ġrequests 0.6915523
Ġthat 1.6205828
Ġlie 8.5453615
Ġoutside 0.13750117
Ġthe 0.61063546
Ġboundaries 2.4762535
Ġof 0.011546281
Ġtraditional 2.3488882
Ġhealthcare 0.31945723
, 1.5216129
Ġleading 3.193327
Ġto 0.025555238
Ġpotential 1.9937938
Ġdile 4.7746234
mm 0.00017818765
as 3.1781543e-05
Ġfor 1.8272849
Ġhealthcare 2.0621085
Ġprofessionals 1.0757807
. 0.14676206
Ċ 0.12300944
E 5.168266
val 0.01681895
uation 0.2521917
Ġof 0.87864804
Ġthe 0.43979406
ĠDecision 0.42450634
: 0.5221997
Ċ 0.019373216
While 2.4608653
Ġit 2.630818
Ġis 1.055546
Ġimportant 1.3053923
Ġto 0.07241382
Ġacknowledge 2.7774673
Ġthe 0.5101615
Ġpotential 0.4312238
Ġbenefits 0.7403956
Ġto 3.0308168
ĠMr 0.14398293
. 0.0003082143
ĠNew 0.00078501605
comb 0.0010934623
's 1.6547683
Ġwell 0.95792377
- 0.0037974296
being 0.0015306388
, 0.44807243
Ġgranting 3.05052
Ġhis 0.24220975
Ġrequest 0.008467199
Ġraises 2.369006
Ġethical 1.1368866
Ġconcerns 0.26936346
Ġthat 1.3890436
Ġmust 1.6889108
Ġbe 0.098276734
Ġcritically 5.8964477
Ġexamined 2.0754752
. 0.15751979
ĠA 4.4494076
Ġthorough 4.5892963
Ġevaluation 1.3704536
Ġof 0.18797728
Ġpotential 3.5116997
Ġconsequences 1.0209049
Ġis 2.3411508
Ġnecessary 1.5873837
Ġto 0.36776862
Ġdetermine 1.3955594
Ġthe 1.0133201
Ġappropri 3.8619626
at 9.606849e-06
eness 5.3162735e-06
Ġof 0.019239226
Ġthe 1.3640455
Ġdecision 0.30133623
. 0.2554605
Ċ 0.6560557
1 5.001824
. 0.0067469315
ĠImpact 3.5786467
Ġon 0.086543985
ĠMr 2.2430863
. 0.00046706502
ĠNew 0.00077129586
comb 0.0034648804
's 0.18396549
Ġwell 0.8811528
- 0.0039868737
being 0.0009505622
: 0.14259313
Ċ 0.04030801
Ġ 1.012209
Ġ 0.016032174
Ġ- 0.009731542
ĠMeeting 1.7293211
Ġhis 0.28578997
Ġmistress 0.014081845
Ġmay 0.40297127
Ġprovide 1.483533
Ġtemporary 3.9180014
Ġrelief 0.95964056
; 5.510523
Ġhowever 0.032698475
, 0.017189136
Ġit 0.7386389
Ġdoes 2.1833975
Ġnot 0.046412483
Ġaddress 0.662947
Ġthe 0.22339493
Ġunderlying 0.5607988
Ġhealth 4.3668647
Ġissues 1.5972466
Ġor 2.80763
Ġcontribute 3.8831694
Ġdirectly 5.5351663
Ġto 0.011459939
Ġhis 0.43403497
Ġphysical 3.1001213
Ġrecovery 0.6054834
. 0.03867486
Ċ 0.18346836
Ġ 0.144732
Ġ 0.004736034
Ġ- 0.0011349329
ĠThe 2.1604555
Ġcurrent 7.2363467
Ġhealthcare 3.5985596
Ġsetting 2.548282
Ġmay 1.6604466
Ġnot 1.1850042
Ġbe 0.28416684
Ġthe 1.1272256
Ġadequate 8.608074
Ġenvironment 0.7473689
Ġfor 0.44622368
Ġengaging 5.84017
Ġin 0.059414797
Ġpersonal 1.8822669
Ġrelationships 1.891991
, 1.1881732
Ġas 2.3640652
Ġit 0.43971688
Ġmay 0.9350789
Ġdivert 5.6761165
Ġattention 0.91349036
Ġfrom 0.6052027
Ġhis 1.9911604
Ġmain 6.181331
Ġhealth 1.6047974
Ġconcerns 0.42145613
. 0.26151353
Ċ 0.13423303
2 0.072799526
. 0.00082301453
ĠEffect 4.123219
Ġon 0.014988157
Ġthe 0.11572669
Ġnurse 0.15567097
- 0.0037576433
patient 0.0007659268
Ġrelationship 0.0019547537
: 0.03884816
Ċ 0.013119101
Ġ 0.019667815
Ġ 0.007724155
Ġ- 0.004470824
ĠGrant 1.415571
ing 2.6893982e-05
Ġthe 0.5587414
Ġrequest 0.01183605
Ġmay 0.64717895
Ġblur 4.1587424
Ġprofessional 0.6390291
Ġboundaries 0.015993837
, 0.80617017
Ġcompromising 2.3906949
Ġthe 0.13087872
Ġnurse 0.5671376
- 0.030303925
patient 0.005342464
Ġrelationship 0.03839721
Ġby 3.194743
Ġintroducing 1.9864069
Ġpersonal 1.9785498
Ġelements 2.6391304
Ġinto 1.0578847
Ġtheir 3.4304814
Ġinteractions 0.48750293
. 0.038811237
Ċ 0.055459175
Ġ 0.1523821
Ġ 0.00022421066
Ġ- 0.0015323095
ĠOther 5.8276253
Ġpatients 0.46548218
Ġmay 0.3368667
Ġobserve 5.625135
Ġthis 2.1792564
Ġdecision 3.674465
, 1.187112
Ġleading 2.239383
Ġto 0.05908536
Ġpotential 1.4279789
Ġchallenges 4.358323
Ġin 1.1758076
Ġmaintaining 1.4027897
Ġequitable 7.8845816
Ġcare 1.0843353
Ġdelivery 3.1011937
Ġand 2.2223935
Ġfairness 5.8148785
Ġin 1.6193848
Ġhealthcare 2.3938527
Ġsettings 3.9872668
. 0.022910472
Ċ 0.03812293
Conclusion 1.1892146
: 0.069188416
Ċ 0.029007139
In 1.7796748
Ġthe 0.7159584
Ġscenario 2.8526886
Ġwhere 4.6302977
ĠMr 0.019635111
. 0.00095628976
ĠNew 0.0006574281
comb 0.0013891109
Ġrequested 4.6516466
Ġto 0.08961863
Ġmeet 0.03582532
Ġhis 0.092232294
Ġmistress 0.017234376
, 0.03495036
Ġthe 1.272778
Ġethical 3.2030122
Ġprinciples 1.4938099
Ġof 0.042464197
Ġbenefic 0.019737601
ence 0.000110467736
Ġand 0.005951657
Ġnon 0.0009928596
- 0.0066027427
mal 0.0015301609
ef 9.127325e-05
ic 0.00040916432
ence 0.0010104622
Ġpresent 5.0239725
Ġa 1.502885
Ġcomplex 2.1101139
Ġethical 3.893581
Ġdilemma 0.50799984
. 0.22193563
ĠWhile 1.1324172
Ġrecognizing 4.5194616
Ġthe 0.25419286
Ġpotential 0.19358847
Ġbenefits 0.7007761
Ġto 0.94684595
ĠMr 0.51778436
. 0.00042246125
ĠNew 0.0005232977
comb 0.012941746
's 0.048399497
Ġwell 0.316926
- 0.0026935416
being 0.0009205525
, 0.22724788
Ġthe 1.1520673
Ġdecision 1.0593352
Ġto 0.2655919
Ġgrant 0.03791601
Ġhis 0.31262332
Ġrequest 0.005642789
Ġraises 1.5182354
Ġconcerns 0.94644123
Ġregarding 0.39192674
Ġprofessional 0.7451135
Ġboundaries 0.016440481
Ġand 0.5534539
Ġthe 0.92565113
Ġoverall 3.764129
Ġnurse 1.2717822
- 0.0024359263
patient 0.00084741286
Ġrelationship 0.004239504
. 0.02150002
ĠStri 8.581761
king 0.7364773
Ġa 0.35273874
Ġbalance 0.06644556
Ġbetween 0.120463036
Ġaddressing 5.06044
Ġpatients 3.014315
' 0.0050170696
Ġemotional 2.5228112
Ġneeds 0.381598
Ġand 0.3260393
Ġmaintaining 0.73511386
Ġprofessional 0.6032702
Ġethics 4.673584
Ġis 0.5980705
Ġcrucial 2.1086948
. 2.9349997
ĠAs 3.7872846
Ġhealthcare 1.0079627
Ġprofessionals 0.4816404
, 0.07921014
Ġit 1.5082706
Ġis 0.009320607
Ġessential 2.0253372
Ġto 0.07275536
Ġevaluate 2.984277
Ġthese 4.1832356
Ġethical 1.824856
Ġchallenges 3.635966
Ġand 1.2130117
Ġpotential 1.850786
Ġconsequences 0.061541185
Ġthought 7.143417
fully 0.000106773194
Ġto 1.6140207
Ġensure 1.4652885
Ġboth 5.176297
Ġindividual 4.315395
Ġpatient 3.1660955
Ġwell 0.5896937
- 0.001873475
being 0.00096822286
Ġand 0.022253202
Ġthe 0.53597546
Ġintegrity 1.4090124
Ġof 0.006453954
Ġthe 0.12374201
Ġnurse 1.1148947
- 0.0020003214
patient 0.0007998683
Ġrelationship 0.010357989
. 0.0208371
