su 11.6213045
icide 2.4585257
ĠIntroduction 14.319055
Ċ 1.1538666
Teen 16.52661
age 2.3873935
Ġis 7.082019
Ġa 1.1473317
Ġpressing 8.921997
Ġissue 0.81626874
Ġthat 3.8074436
Ġrequires 3.9531286
Ġthe 3.1359959
Ġcollective 6.2498875
Ġefforts 2.027502
Ġteachers 16.48241
Ġand 0.99987227
Ġof 8.423863
Ġparents 1.794665
Ġto 0.9747591
Ġaddress 2.8970828
Ġeffectively 5.7045956
. 0.24665403
ĠAd 6.634732
olesc 0.45389658
ence 0.5810275
Ġis 0.51514816
Ġa 0.80674094
Ġperiod 2.2148983
Ġand 6.945629
Ġof 5.388952
Ġvulnerability 6.924694
, 2.2629068
Ġby 7.6323857
Ġworking 8.679375
Ġtogether 0.8455155
, 1.5650511
Ġand 4.4236817
Ġteachers 5.853672
Ġparents 8.443373
Ġfoster 8.451247
Ġcan 6.5742874
Ġa 7.2160506
Ġsupportive 6.8835306
Ġenvironment 1.0299621
Ġthat 2.2605274
Ġmental 9.624507
Ġpromotes 14.773216
Ġand 3.1383932
Ġwell 7.0587745
- 0.9852137
being 0.7704659
Ġprevents 10.473296
Ġteenage 5.808983
Ġsuicide 0.22719775
. 0.3697074
ĠThis 3.3075733
Ġwill 4.859353
Ġessay 10.079124
Ġexplore 4.248289
Ġrecommendations 9.559526
Ġfor 1.0431712
Ġcollaboration 8.967927
Ġteachers 6.2043667
Ġbetween 5.138911
Ġparents 1.9834256
Ġand 0.18401887
Ġand 6.1751018
Ġstrategies 7.2111597
Ġdiscuss 9.764868
Ġfor 4.7302723
Ġeffectively 6.2892027
Ġcommunicating 4.415023
Ġwith 1.84941
Ġat 6.803049
- 1.5547601
risk 0.03218413
Ġteenagers 2.3513234
. 0.7246958
Ċ 1.5392102
Recommend 12.819062
ations 0.058797006
Ġfor 0.65743
ĠEst 9.547416
ablish 0.04651807
ĠCollabor 7.1022844
ation 0.5649928
Ċ 2.411845
1 4.2748456
. 0.20791233
ĠOpen 7.584689
ĠCh 10.814208
annels 0.28565457
ĠCommunication 6.839618
: 3.0335336
Ċ 2.114219
Both 5.137868
Ġof 4.908234
Ġand 7.3318386
Ġparents 1.2440256
Ġteachers 5.30032
Ġneed 3.3020144
Ġto 0.17107832
Ġinitiate 6.896181
Ġopen 3.841218
Ġand 2.572558
Ġcommunication 3.9180417
Ġongoing 10.51962
Ġto 3.6876733
Ġa 5.0070214
Ġensure 9.2621975
Ġholistic 8.684368
Ġunderstanding 3.1345172
Ġa 6.8125114
Ġof 2.8758066
Ġemotional 5.7863283
Ġwell 1.9881332
- 0.19614224
being 0.017303022
. 1.8247333
Ġstudent 9.778182
's 2.2866344
ĠTeachers 12.553799
Ġcan 2.90195
Ġmeetings 11.4063835
Ġorganize 9.344523
Ġand 2.0073738
Ġparent 4.9643655
- 2.3472686
te 0.19107887
acher 0.08981997
Ġconferences 1.6563723
, 2.5579512
Ġallowing 6.1296544
Ġthem 2.96193
Ġshare 7.0192046
Ġto 5.43385
Ġconcerns 6.5422964
Ġtheir 6.2012906
Ġand 2.749159
Ġinsights 9.533815
Ġabout 2.861804
Ġstudent 3.532305
's 1.3230326
Ġa 6.4795065
Ġbehavior 5.816059
Ġand 1.7649518
Ġacademic 3.9542263
Ġperformance 2.673304
. 0.5650682
Ġshould 8.116986
Ġparents 3.8174765
Ġactively 5.4568033
ĠSimilarly 14.8460045
, 0.15204586
Ġengage 8.689542
Ġwith 2.0911136
Ġteachers 2.1772258
, 3.5312023
Ġval 9.766424
uing 0.0700954
Ġtheir 1.3584231
Ġobservations 7.017914
Ġand 0.7977364
Ġseeking 6.406754
Ġtheir 1.3100737
Ġguidance 4.8041644
Ġin 2.3259895
Ġidentifying 5.2728553
Ġof 6.999154
Ġsigns 7.428085
Ġdistress 11.156853
. 1.8701149
Ċ 1.9098502
2 1.497608
. 0.008220234
ĠEnhanced 8.112047
ĠMental 6.338806
ĠEducation 5.855326
: 0.56777185
Ċ 0.2973146
Parents 3.4556277
ĠHealth 10.378923
Ġand 1.6033707
Ġteachers 5.477159
Ġmust 4.093743
Ġcollaborate 4.5383663
Ġto 0.8090865
Ġenhanced 7.6964083
Ġadvocate 11.568868
Ġfor 1.2705059
Ġmental 2.9584908
Ġhealth 1.0753927
Ġin 2.7211502
Ġeducation 5.894801
Ġschools 6.53527
. 0.78676707
Ġinclusive 11.351367
ĠAn 11.598763
Ġcurriculum 7.1858816
Ġshould 3.5837395
Ġinclude 1.5266345
Ġteaching 4.8895817
Ġstudents 3.1381028
Ġtheir 6.0411425
Ġabout 5.0262833
Ġcoping 6.412326
Ġemotions 6.9238687
, 1.1939058
Ġmechanisms 9.014626
, 1.2056254
Ġand 0.4448717
Ġhow 3.66747
Ġto 0.31378472
Ġmanage 2.19736
Ġstress 2.5107324
. 0.7154301
ĠBy 5.8768525
Ġincluding 4.340355
Ġhealth 5.8041663
Ġmental 6.3977017
Ġdiscussions 9.078714
Ġa 5.555934
Ġas 4.8370104
Ġpart 1.9622775
Ġregular 10.73804
Ġof 6.3373632
Ġthe 2.073817
Ġeducation 5.6296363
Ġprocess 3.084023
, 0.5433172
Ġboth 5.468111
Ġteachers 1.0700631
Ġparents 3.9252818
Ġhelp 5.186233
Ġand 4.5503826
Ġto 4.6929846
Ġnormal 8.740829
ize 0.15589713
Ġaround 9.602836
Ġconversations 7.77341
Ġand 2.405862
Ġmental 5.0662045
Ġhealth 1.0778191
Ġstudents 5.40676
Ġprovide 6.785778
Ġwith 4.5891385
Ġimportant 6.1488686
Ġon 7.232285
Ġhow 3.8910599
Ġinformation 8.7508745
Ġto 2.7156205
Ġseek 7.607409
Ġhelp 1.9759752
. 1.2648331
Ċ 1.9758286
3 0.40249556
. 0.006499547
ĠEnc 3.936866
ourage 0.19000676
Ġan 6.122134
ĠIn 4.120889
clusive 0.14204887
ĠEnvironment 2.1608045
: 0.12112438
Ċ 0.047834456
Te 1.6740246
achers 0.06260136
ĠClass 10.148592
room 0.26773676
Ġcan 4.265154
Ġwork 5.0550823
Ġfostering 10.489541
Ġan 1.9116648
Ġtowards 9.804842
Ġinclusive 4.9134016
Ġand 2.263624
Ġsupportive 2.3178422
Ġclassroom 4.477529
Ġenvironment 1.5629154
Ġthat 2.7984023
Ġpromotes 2.535548
Ġmental 1.5375834
Ġwell 1.4066652
- 0.05568708
being 0.024573578
. 0.92690456
ĠBy 3.512679
Ġbullying 9.775565
Ġpreventing 9.85753
Ġand 2.8099852
Ġa 5.0677752
Ġcreating 6.558414
Ġsafe 3.3086636
Ġspace 2.280769
Ġfor 0.97881335
Ġstudents 0.74800366
Ġto 0.70554864
Ġexpress 1.8374904
Ġteachers 10.416446
Ġthemselves 6.7920494
, 1.0250726
Ġcan 5.0178595
Ġcontribute 4.783793
Ġthe 5.4083624
Ġsignificantly 9.82452
Ġto 1.2008986
Ġreducing 3.7995114
Ġrisk 5.2942805
Ġof 0.6418623
Ġteenage 3.578938
Ġsuicide 0.09847304
. 0.22365029
ĠIn 3.5993032
forming 6.2383695
Ġparents 1.971337
Ġabout 1.8534846
Ġthe 1.4473097
Ġtaken 13.191455
Ġto 3.5934937
Ġsteps 7.3381724
Ġmaintain 10.425628
Ġan 2.63637
Ġinclusive 1.1455151
Ġclassroom 2.1787548
Ġhelp 7.0816374
Ġwill 6.7296004
Ġconsistency 11.583974
Ġensure 6.9745965
Ġand 4.7798057
Ġcollaboration 7.3693986
Ġbetween 2.5331945
Ġhome 8.63017
Ġand 0.7289167
Ġschool 0.7612814
. 1.0513057
Ċ 1.461942
4 0.28533062
. 0.004501421
ĠEarly 7.6874895
ĠIdentification 6.0213614
ĠIntervention 6.584629
: 0.22678985
Ċ 0.025427083
Te 1.1728154
achers 0.046529
Ġand 2.3886933
Ġparents 0.31665307
Ġand 5.22256
Ġcollaborate 8.12983
Ġshould 5.910953
Ġto 4.2918177
Ġidentify 1.6971568
Ġand 1.6412876
Ġwarning 9.140343
Ġrisk 7.0881157
Ġsigns 5.737871
Ġfactors 9.082141
Ġassociated 3.6662056
Ġteenage 6.9316173
Ġwith 5.730592
Ġsuicide 1.6626419
, 2.615419
Ġsuch 1.9536276
Ġas 0.029705273
Ġwithdrawal 7.4629803
Ġfrom 1.3107998
Ġsocial 3.042081
Ġactivities 2.3034146
, 0.4783539
Ġdeclining 8.335484
Ġacademic 1.5697219
Ġor 5.0773845
Ġperformance 4.0458846
, 0.6916667
Ġsudden 8.678519
Ġmood 2.8773997
ĠTeachers 17.977804
, 3.5542262
Ġswings 17.717852
. 6.6427784
Ġtheir 6.787463
Ġwith 6.2537394
Ġregular 8.2867565
Ġinteractions 6.1383533
Ġwith 0.64949
Ġcan 7.859214
Ġact 6.657565
Ġstudents 7.3301616
, 1.2434593
Ġas 3.8037798
Ġthe 4.6909995
Ġfirst 3.8231528
Ġdefense 8.687686
Ġline 7.2282667
Ġof 2.0810664
Ġby 8.819838
Ġreporting 7.771453
Ġconcerns 4.092158
Ġpromptly 9.294182
Ġparents 5.447407
. 1.8594812
Ġto 4.3337836
ĠParents 6.1720896
, 2.0991397
Ġin 4.472059
Ġturn 4.3912215
, 0.22700733
Ġshould 3.2378821
Ġtake 5.2180686
Ġconcerns 6.671713
Ġseriously 2.0859303
Ġthese 8.994375
Ġand 3.8044763
Ġwith 6.2615404
Ġcollectively 11.427782
Ġwork 2.840214
Ġteachers 8.766222
Ġto 0.9169861
Ġoffer 5.275251
Ġappropriate 4.106829
Ġsupport 2.8612342
Ġand 2.0512211
Ġintervention 2.4774954
Ġtailored 9.018634
Ġthe 6.0655885
Ġto 3.279634
Ġstudent 3.3020904
's 0.77166736
Ġfor 7.615089
ĠEffect 13.010518
ively 1.5888184
Ġneeds 14.960541
. 2.551007
Ċ 1.6479424
Str 9.020726
ateg 0.06676029
ies 0.0049738763
ĠCommun 8.301401
icating 0.9321994
Ġwith 0.77814996
ĠAt 2.7309453
- 0.5836429
R 0.068220034
isk 0.0008817149
ĠTeen 1.9688592
agers 0.13424878
Ċ 0.26431325
1 2.2411945
. 0.020611335
ĠActive 6.783752
ĠList 4.7723517
ening 0.013549969
: 1.346026
Ċ 0.20436752
When 4.8846917
Ġcommunicating 4.9123564
Ġwith 0.32384646
Ġat 1.075663
- 0.24786313
risk 0.032331865
Ġteenagers 0.7516221
, 0.57384276
Ġboth 2.995323
Ġparents 0.9748778
Ġand 0.2263379
Ġteachers 0.28201735
Ġshould 1.7183843
Ġprioritize 8.130523
Ġactive 1.608547
Ġempathy 9.214356
, 1.8463993
ĠGen 14.263387
uine 0.6671928
Ġlistening 1.3631938
. 2.9940975
Ġattention 9.368354
, 1.5494969
Ġunderstanding 4.548585
Ġand 2.0005484
Ġcan 4.8589706
Ġalleviate 8.390353
Ġany 4.6460624
Ġfeelings 3.8000226
Ġof 0.5886812
Ġisolation 1.9542724
Ġor 1.8837984
Ġhopeless 4.7149444
ness 0.023130897
Ġthat 2.2719624
Ġthe 4.518092
Ġteenager 2.7148516
Ġbe 8.440005
Ġmay 5.348613
Ġexperiencing 6.1720715
. 0.23867244
ĠBy 3.2061257
Ġwithout 10.8572235
Ġactively 5.4938045
Ġlistening 2.3873665
Ġadults 8.366551
Ġjudgment 13.091018
, 1.8043754
Ġcan 3.7500381
Ġprovide 4.7681828
Ġsafe 6.998487
Ġspace 2.067028
Ġa 6.3397655
Ġfor 1.9967822
Ġto 4.7171235
Ġteenagers 5.5564713
Ġstart 8.94783
Ġsharing 4.689506
Ġtheir 0.958014
Ġthoughts 2.124702
Ġemotions 10.536079
. 2.3954246
Ċ 1.4702821
2 0.51589197
. 0.0044874107
Ġand 9.368858
ĠPat 9.7665
ience 0.0850219
Ġand 3.8907351
ĠNon 6.065032
- 0.36086684
Jud 3.960341
gment 0.08734645
al 1.3873489
Ġand 7.0452957
ĠAtt 6.1072283
itude 1.9329705
: 0.37643048
Ċ 0.027662449
Te 1.3640331
achers 0.030719455
Ġparents 2.5253015
Ġmust 3.1243618
Ġmaintain 5.8370137
Ġand 2.9599433
Ġpatience 5.0543823
Ġavoid 9.14771
Ġpassing 6.312133
Ġjudgments 4.403483
Ġwhen 4.226464
Ġdiscussing 2.5642302
Ġsensitive 6.1884594
Ġtopics 1.2661481
Ġwith 1.8450611
Ġat 1.9208982
- 0.044168115
risk 0.07526043
Ġteenagers 0.3064077
. 0.36537075
ĠRemember 7.8321085
Ġthat 0.9358837
Ġthey 4.1016507
Ġfind 8.943133
Ġmay 7.1987634
Ġit 5.287132
Ġto 2.8270242
Ġdifficult 2.4388666
Ġarticulate 12.001154
Ġtheir 1.121003
Ġfears 6.1709824
, 1.5259111
Ġemotions 5.8855243
, 0.53882253
Ġor 2.0265074
Ġstruggles 5.494576
. 1.1109006
ĠBy 2.4330006
Ġcreating 6.2730026
Ġan 1.775154
Ġfree 11.737852
Ġenvironment 4.016418
Ġfrom 6.535046
Ġcriticism 6.6283493
Ġand 1.8853141
Ġjudgment 2.6807144
, 0.45070645
Ġadults 7.020524
Ġencourage 6.5694866
Ġcan 4.7784266
Ġto 3.5890667
Ġteenagers 10.968703
Ġopenly 6.8964477
, 5.082976
Ġspeak 8.2631035
Ġfostering 14.727602
Ġtrust 5.313591
Ġand 0.7187828
Ġcommunication 4.6424656
. 0.8186977
Ċ 2.0840387
3 0.07548525
. 0.0046336325
ĠCollabor 4.5977464
ative 1.8206195
Ġof 6.679415
ĠProblem 7.7949114
- 1.4562523
S 0.5785704
olving 0.0048737866
: 1.2392625
Ċ 0.0120015675
Instead 7.255402
Ġimposing 13.137008
Ġand 3.5309234
Ġteachers 4.994874
Ġsolutions 7.807383
, 1.6154737
Ġparents 0.9240246
Ġshould 2.9166014
Ġengage 4.957055
Ġin 1.1843309
Ġcollaborative 1.9824139
Ġproblem 1.0472039
- 0.15659796
s 0.028918967
olving 0.004472501
Ġteenagers 12.006966
. 1.5185065
Ġat 8.300839
- 0.27179104
risk 0.019902488
Ġwith 7.1367297
ĠEnc 12.723699
ourage 0.07429015
Ġto 4.668317
Ġexpress 7.3197284
Ġtheir 1.2445171
Ġteenagers 10.468171
Ġthoughts 3.3604014
Ġpotential 9.934507
Ġon 6.406025
Ġsolutions 3.5069456
Ġand 2.4526424
Ġwork 4.1776524
Ġto 2.2116213
Ġtogether 6.5211263
Ġcreate 4.199547
Ġan 2.5533128
Ġplan 6.470203
, 3.4924693
Ġaction 5.8950396
Ġempowering 13.401126
Ġto 4.324685
Ġthem 4.273314
Ġownership 14.665508
Ġtake 7.7176256
Ġof 4.9737196
Ġtheir 2.1440434
Ġmental 5.8078947
Ġwell 1.1906576
- 0.01830046
being 0.013084376
. 0.36347404
ĠThis 3.529515
Ġapproach 4.5063376
Ġwill 2.2650847
Ġenhance 5.3837976
Ġtheir 1.7760763
Ġconfidence 3.6009088
Ġand 1.031623
Ġreinforce 8.402774
Ġthe 1.7776635
Ġidea 3.6748376
Ġthat 0.21056858
Ġare 6.2123384
Ġthey 5.0124364
Ġnot 3.454768
Ġalone 0.92016643
Ġin 1.5099878
Ġstruggles 6.277152
. 0.6077339
Ċ 0.7667067
4 0.12420134
. 0.0025789775
Ġtheir 12.501596
ĠRefer 8.939395
ring 3.9782116
ĠProfessional 7.9633384
Ġto 4.728361
ĠHelp 2.198155
: 0.21723069
Ċ 0.016189722
Te 1.0004752
achers 0.007143782
Ġand 2.0317667
Ġbe 8.974263
Ġshould 3.9938698
Ġparents 2.7962747
Ġaware 8.283545
Ġof 0.8162646
Ġlimitations 10.067213
Ġtheir 3.9444551
Ġbe 5.692085
Ġand 3.5134797
Ġprepared 10.257914
Ġto 0.28933984
Ġrefer 3.1367664
Ġat 4.6509104
- 0.041505117
risk 0.017079026
Ġteenagers 0.8862271
Ġto 0.3061813
Ġmental 4.939315
Ġhealth 0.1564853
Ġwhen 7.201767
Ġprofessionals 6.484751
Ġnecessary 7.7353063
. 0.9562738
ĠThis 3.5918498
Ġcommunication 6.8306255
Ġshould 2.7102952
Ġbe 1.2038815
Ġcarried 5.4845586
Ġout 0.21765946
Ġsensitive 7.7987022
ly 0.27036014
, 1.1134123
Ġhighlighting 7.925348
Ġprofessional 7.0851603
Ġassistance 4.6354685
Ġan 6.7214737
Ġas 4.8737426
Ġsupport 7.6730638
Ġadditional 8.755568
Ġsystem 11.147085
Ġrather 8.124603
Ġthan 0.08597669
Ġa 2.617871
Ġreplacement 4.952969
Ġfor 1.0433635
Ġfamily 4.5706873
Ġschool 7.675213
Ġor 3.7974262
Ġrelationships 9.401371
. 0.3118644
Ċ 0.41634217
Conclusion 3.232876
Ċ 0.61460435
The 2.5558798
Ġalarming 8.336645
Ġof 3.5269036
Ġrise 8.316631
Ġsuicide 5.2573237
Ġteenage 9.6634655
Ġnecess 13.729375
itates 0.23710313
Ġa 2.2358253
Ġjoint 5.070357
Ġeffort 0.47556257
Ġbetween 1.4976526
Ġteachers 1.2399722
Ġand 0.72361785
Ġparents 0.11468458
Ġto 0.5892443
Ġcreate 3.3006053
Ġand 2.7042608
Ġa 3.6905105
Ġprotective 6.892988
Ġnurturing 9.371125
Ġenvironment 0.23555645
Ġfor 1.0865659
Ġour 5.173245
Ġyouth 3.5852711
. 0.36963952
ĠBy 2.3636045
Ġopen 8.39898
Ġestablishing 9.540339
Ġchannels 6.278982
Ġof 0.73128015
Ġcommunication 0.22844657
, 1.056779
Ġenhancing 6.1542797
Ġmental 1.761939
Ġhealth 1.0499207
Ġfostering 9.208869
Ġeducation 5.836045
, 0.99024373
Ġinclusive 9.531211
Ġan 5.2672806
Ġclassroom 6.4746532
, 1.5834596
Ġearly 6.1179194
Ġidentification 0.18122104
, 2.9596567
Ġintervention 4.3875375
, 0.8410933
Ġand 0.39202225
Ġparents 5.868708
Ġand 2.822476
Ġwork 6.7618566
Ġteachers 5.7761927
Ġcan 2.6082819
Ġtogether 4.910784
Ġto 1.6503296
Ġaddress 3.7334118
Ġthis 2.125425
Ġcritical 2.8263383
Ġstrategies 12.887757
Ġissue 7.0629587
. 0.34081823
ĠEmploy 9.363012
ing 0.22517025
Ġsuch 5.6960764
Ġactive 6.8729534
Ġas 4.976639
Ġlistening 7.5345197
, 0.7799584
Ġnon 2.2818172
- 0.0890208
jud 0.0025010554
gment 0.059162956
al 0.15003556
Ġa 6.6454844
Ġattitude 3.9959838
, 0.36541772
Ġcollaborative 5.842888
Ġproblem 0.8326749
- 0.16804093
s 0.01930303
olving 0.0034371873
, 0.4296988
Ġappropriate 7.25548
Ġand 2.9998908
Ġreferrals 7.9821424
Ġto 1.5920883
Ġprofessional 1.5371734
Ġhelp 1.1014622
Ġcontribute 8.276011
Ġsignificantly 2.5952737
Ġwill 7.537549
Ġto 1.6392827
Ġeffectively 4.4209566
Ġwith 7.906068
Ġcommunicate 8.762747
Ġteenagers 4.004463
. 3.7076542
Ġat 7.7490215
- 0.12430696
risk 0.019660886
ĠThrough 10.518635
Ġconsistent 5.179246
Ġcollaboration 3.6651878
, 1.4552872
Ġwe 3.1976898
Ġcreate 6.679133
Ġcan 6.312337
Ġsupportive 7.584857
Ġa 4.05847
Ġthat 4.0208116
Ġensures 7.1904354
Ġnetwork 11.096025
Ġemotional 7.418935
Ġwell 0.9274404
- 0.021417988
being 0.018823879
Ġthe 6.380919
Ġof 3.6303298
Ġour 3.0524588
Ġadolescents 4.717285
, 2.683939
Ġteenage 9.369959
Ġpreventing 9.933664
Ġsuicide 1.0775355
Ġand 2.400621
Ġfostering 6.481859
Ġlifelong 6.1993837
Ġresilience 4.634327
. 0.1854687
