In 4.2490535
Ġthe 1.8133665
Ġdemanding 12.734535
Ġand 2.8069015
Ġfast 3.4418771
- 1.1806729
paced 0.065294616
Ġhealthcare 7.492307
Ġsetting 4.5548944
, 0.4461193
Ġnurses 4.560963
Ġare 1.580978
Ġconstantly 4.0098743
Ġexposed 4.164233
Ġto 0.015479444
Ġhigh 4.039261
Ġlevels 1.6754944
Ġof 0.0023795692
Ġstress 0.8402742
. 1.1626818
ĠFrom 6.17694
Ġdealing 4.514999
Ġwith 0.0112582585
Ġcritically 7.9460225
Ġill 0.19023205
Ġpatients 0.08849931
Ġto 0.7410292
Ġmanaging 2.23977
Ġlong 5.181498
Ġworking 4.507728
Ġhours 0.28711763
, 0.47510704
Ġthese 4.25278
Ġprofessionals 3.9269807
Ġare 1.4412582
Ġoften 2.3464463
Ġat 2.3877811
Ġrisk 2.0484557
Ġof 0.32328436
Ġexperiencing 2.7316527
Ġburn 2.240529
out 0.11593115
Ġand 1.9145348
Ġa 3.51399
Ġdecline 2.7722101
Ġin 0.017926207
Ġtheir 1.6127356
Ġemotional 4.86601
Ġwell 1.2989985
- 0.061273213
being 0.0030645803
. 0.10589697
ĠHowever 4.510193
, 0.038031507
Ġthere 2.182678
Ġis 0.65915614
Ġa 1.097033
Ġpowerful 4.982188
Ġcoping 6.168989
Ġmechanism 0.43006104
Ġthat 0.8548543
Ġcan 1.0119449
Ġhelp 0.604472
Ġnurses 1.96015
Ġin 4.8578806
Ġmanaging 3.4729667
Ġtheir 1.519089
Ġstress 0.63798547
Ġlevels 2.1762772
Ġand 1.6175684
Ġpreventing 3.6578338
Ġburn 0.14066671
out 0.03868348
Ġ– 3.4856794
Ġlearned 8.873359
Ġoptimism 5.290328
. 0.11689652
ĠBy 5.7836127
Ġcultivating 5.1173487
Ġa 1.3721944
Ġpositive 1.0748608
Ġand 2.8838887
Ġoptimistic 1.0472764
Ġmindset 2.3971367
, 0.2422066
Ġnurses 0.29311717
Ġcan 0.22706458
Ġreduce 2.697751
Ġthe 1.4551531
Ġrisk 2.1185555
Ġof 0.049572654
Ġburn 0.13124059
out 0.013338803
Ġand 0.5624338
Ġimprove 1.961666
Ġtheir 0.28138423
Ġemotional 1.4535507
Ġwell 0.45265627
- 0.008384554
being 0.0033724615
, 2.7660606
Ġultimately 5.5064955
leading 12.37257
Ġto 0.046134204
Ġbetter 1.716117
Ġpatient 1.178131
Ġcare 1.0228503
. 0.789246
Ċ 0.4213556
Lear 20.235754
ned 0.01619132
Ġoptimism 0.9028127
Ġis 0.7423963
Ġthe 1.9232807
Ġbelief 2.0670295
Ġin 3.1500394
Ġone 2.3509324
's 1.7464077
Ġability 1.7808232
Ġto 0.058938395
Ġcontrol 4.185481
Ġthe 2.3568404
Ġoutcome 2.1733646
Ġof 0.15051197
Ġsituations 3.3894873
Ġand 1.585137
Ġthe 2.982989
Ġbelief 4.050058
Ġthat 0.21613784
Ġsetbacks 7.92052
Ġare 1.3667668
Ġtemporary 2.0981643
Ġand 1.2507533
Ġcan 2.1899285
Ġbe 0.12429124
Ġovercome 0.7919007
. 0.4964095
ĠThis 2.823796
Ġmindset 3.283668
Ġis 1.2959023
Ġcrucial 3.5274827
Ġfor 1.1880553
Ġnurses 0.7996731
Ġas 2.764615
Ġthey 0.6194524
Ġface 1.7368193
Ġnumerous 5.296881
Ġchallenges 0.809881
Ġand 2.0589643
Ġuncertainties 5.2454157
Ġin 1.3031931
Ġtheir 0.3213991
Ġdaily 2.5260339
Ġwork 1.2614186
. 0.51450443
ĠBy 3.833169
Ġadopting 3.425116
Ġthis 1.4700835
out 17.312744
look 3.204747
, 0.14732945
Ġnurses 0.21037085
Ġare 2.6104155
Ġmore 2.1144218
Ġlikely 0.3869481
Ġto 0.011998465
Ġview 6.454767
Ġsetbacks 3.3916135
Ġor 6.063464
Ġstressful 5.517699
Ġevents 1.3555324
Ġas 0.43031856
Ġtemporary 2.4502523
Ġobstacles 5.5058107
Ġrather 2.709766
Ġthan 0.008414102
Ġinsur 5.7313976
mount 0.008832605
able 0.003060419
Ġbarriers 4.0193615
. 0.8000111
ĠInstead 5.4171324
Ġof 0.26693353
Ġfeeling 2.6508589
Ġdefeated 2.4439633
, 1.2374525
Ġthey 1.7508507
Ġare 1.649572
Ġencouraged 2.8870637
Ġto 0.04582419
Ġfind 4.624949
Ġsolutions 1.8360133
, 2.883257
Ġlearn 4.540031
Ġfrom 0.66743755
Ġexperiences 4.4697347
, 0.96513677
Ġand 0.10327346
Ġapproach 5.590478
Ġchallenges 2.4795876
Ġwith 0.67793286
Ġresilience 5.239419
. 1.1374145
Ċ 1.1684234
One 6.9709744
Ġway 2.696655
Ġin 3.2277334
Ġwhich 0.0044925464
Ġlearned 2.298678
Ġoptimism 0.0070896
Ġserves 7.0593643
Ġas 2.0511212
Ġa 0.2520914
Ġcoping 1.1811357
Ġmechanism 0.10614893
Ġfor 0.87591314
Ġnurses 0.128768
Ġis 0.16008213
Ġby 1.0142348
Ġhelping 2.0288882
Ġthem 0.4100252
Ġref 6.117145
rame 0.19142166
Ġnegative 2.3359058
Ġsituations 2.8106756
. 2.0526426
ĠIn 2.5006442
Ġhigh 7.2063065
- 1.2596949
stress 0.11994242
Ġmoments 5.14455
, 0.10746227
Ġnurses 0.97232306
Ġmay 2.1314414
Ġencounter 7.1040077
Ġdifficult 3.7838826
Ġpatients 2.571971
, 0.95021594
Ġmedical 4.589617
Ġerrors 2.2621026
, 0.10535509
Ġor 0.93459094
Ġconflicts 7.377131
Ġwith 1.2542794
Ġcolleagues 1.6372473
. 0.61218953
ĠThese 3.0139942
Ġexperiences 2.6916137
Ġcan 0.8038283
Ġeasily 5.153733
Ġlead 2.0544195
Ġto 0.13937864
Ġfeelings 2.1814306
Ġof 0.008633477
Ġfrustration 2.6275296
, 0.76950896
Ġguilt 4.2896056
, 0.050419286
Ġor 2.6108453
anger 11.911576
. 1.004858
ĠHowever 2.6433349
, 0.0040131034
Ġby 1.5909958
Ġutilizing 6.486213
Ġlearned 0.8302354
Ġoptimism 0.015399737
, 0.44816935
Ġnurses 0.11460158
Ġcan 0.4172564
Ġref 1.8293912
rame 0.06447213
Ġthese 0.763717
Ġsituations 2.2816117
Ġand 1.9215618
Ġfocus 5.0222516
Ġon 0.25996393
Ġthe 1.3124571
Ġpositive 0.3688536
Ġaspects 1.8112239
. 3.1486292
ĠFor 2.4568946
Ġexample 0.12943484
, 0.011671428
Ġinstead 3.4606538
Ġof 0.00054993347
Ġdwelling 3.908164
Ġon 0.067502566
Ġa 3.1303155
Ġmistake 6.480633
, 0.85155684
Ġan 4.019097
Ġoptimistic 5.7414365
Ġnurse 0.15532559
Ġmay 1.1792095
Ġview 3.3846548
Ġit 1.372721
Ġas 0.06677189
Ġa 0.6404538
Ġlearning 0.4919178
Ġopportunity 0.5605589
Ġto 2.9851716
Ġimprove 1.3477613
Ġtheir 1.7857472
Ġskills 2.0657687
Ġand 0.90879303
Ġprevent 5.6019807
Ġfuture 0.6005785
Ġerrors 2.8054047
. 0.11075721
ĠThis 2.5734093
Ġref 5.199688
ram 0.117374174
ing 0.021603156
Ġof 1.1292739
Ġnegative 1.4133106
Ġevents 1.5385205
Ġenhances 6.3969054
Ġnurses 2.5524092
' 0.11423094
Ġability 0.8526545
Ġto 0.01567041
Ġmanage 3.0663626
Ġstress 0.82991177
, 2.0398612
Ġmaintain 4.8465395
Ġa 1.5028578
Ġpositive 0.18223234
Ġattitude 1.3187312
, 0.15336616
Ġand 0.063384384
Ġcontinue 5.600511
Ġproviding 5.30477
Ġquality 1.44418
Ġcare 1.0552293
Ġto 1.4006219
Ġtheir 0.5467343
Ġpatients 0.060417935
. 0.11851749
Ċ 0.7822449
Moreover 7.5015645
, 0.0015291442
Ġlearned 2.1503296
Ġoptimism 0.00768672
Ġaids 6.65896
Ġnurses 0.19153813
Ġin 0.34406206
Ġmaintaining 3.5727177
Ġa 0.63172626
Ġsense 4.2410173
Ġof 0.0013767797
Ġcontrol 2.5179892
Ġover 0.9003151
Ġtheir 0.6607254
Ġwork 1.4883295
Ġenvironment 1.9082623
. 0.64591604
ĠIn 2.8809793
Ġthe 2.2808523
Ġhealthcare 4.312359
Ġsetting 0.3634529
, 0.018950582
Ġnurses 0.827274
Ġoften 2.065414
Ġhave 2.1939979
Ġlittle 2.3588078
Ġcontrol 0.4985629
Ġover 0.034300428
Ġexternal 9.1136
Ġfactors 1.0040528
Ġsuch 1.0240852
Ġas 0.003015142
Ġpatient 2.723633
Ġoutcomes 4.3076477
Ġor 1.1088395
Ġstaffing 4.5348697
Ġshortages 3.5370655
. 0.18101597
ĠHowever 2.8432748
, 0.0020372493
Ġby 0.98224986
Ġcultivating 2.3478088
Ġlearned 2.3407705
Ġoptimism 0.017394371
, 0.21371001
Ġnurses 0.27801922
Ġcan 0.49485874
Ġshift 5.6839266
Ġtheir 0.3707835
Ġattention 2.4423022
Ġto 0.9949983
Ġaspects 5.8630323
Ġthey 5.89788
Ġcan 1.431394
Ġcontrol 0.32907826
, 1.3383926
Ġsuch 0.32120776
Ġas 0.0066926307
Ġtheir 2.6794786
Ġcommunication 7.8554416
Ġskills 1.201004
, 0.97908133
Ġtime 3.6855693
Ġmanagement 0.3043895
, 0.18278597
Ġand 0.37658408
Ġself 5.28132
- 0.033964932
care 1.8107797
. 0.23325258
ĠThis 2.5996222
Ġinternal 5.9626718
Ġfocus 2.216327
Ġon 2.440701
Ġcontro 5.318511
ll 0.22224061
able 1.1556377
Ġfactors 1.6049258
Ġhelps 2.6671057
Ġnurses 0.3481123
Ġ 13.377201
Ġavoid 13.686453
Ġfeeling 2.8918152
Ġhelpless 4.188288
Ġor 1.2384276
Ġoverwhelmed 1.7961354
Ġby 2.029916
Ġthe 1.3240414
Ġexternal 4.6236486
stress 11.870204
ors 0.09792211
. 1.1580806
ĠConsequently 5.467192
, 0.004319149
Ġthey 2.1527143
Ġfeel 4.861059
Ġempowered 3.3887506
Ġand 1.512896
Ġcan 2.0795088
Ġadapt 6.320616
Ġmore 4.223178
Ġeffectively 1.1688355
, 3.3288548
Ġreducing 3.7709758
Ġthe 1.5444338
Ġrisk 1.0675803
Ġof 0.025419634
Ġburn 0.12539037
out 0.008914722
. 0.49323657
Ċ 1.0534378
Import 8.651481
antly 0.418273
, 0.007974965
Ġthe 3.019061
Ġapplication 5.728998
Ġof 0.011821295
Ġlearned 0.117657915
Ġoptimism 0.008536328
Ġsignificantly 6.7081847
Ġimproves 1.1661334
Ġemotional 4.553369
Ġwell 0.43046975
- 0.0050634523
being 0.002515016
Ġin 2.6199152
Ġnurses 0.68838423
. 0.5853684
ĠBy 2.9057763
Ġfocusing 3.3713875
Ġon 0.2537608
Ġpositive 0.99862057
Ġthoughts 4.66502
Ġand 0.58174896
Ġmaintaining 5.6741457
Ġa 0.40857542
Ġsense 2.1670618
Ġof 0.0041188886
Ġoptimism 3.4586508
, 0.17288445
Ġnurses 0.08383428
Ġcan 0.7243421
Ġcounter 7.286709
balance 2.11084
Ġthe 0.8713046
Ġemotional 4.2487636
Ġtoll 3.4622362
Ġthat 1.9693257
Ġtheir 3.885082
Ġwork 1.1483703
Ġmay 3.5092418
Ġbring 4.0590134
. 0.8506785
ĠStudies 6.830944
Ġhave 0.43792275
Ġshown 0.47179776
Ġthat 0.041540485
Ġoptimistic 4.386485
Ġindividuals 4.549465
Ġhave 2.1092796
Ġlower 1.805428
Ġlevels 0.7544054
Ġof 0.007767632
Ġpsychological 5.0752625
Ġdistress 1.0131592
, 1.3059783
Ġreduced 5.146789
Ġsymptoms 3.0895114
Ġof 0.040576775
Ġanxiety 2.9115407
Ġand 1.1601624
Ġdepression 0.5691108
, 0.029380944
Ġand 0.44023344
Ġa 2.0860476
Ġgreater 1.705371
Ġoverall 4.9892216
Ġsense 1.0259542
Ġof 0.0060800067
Ġwell 0.61328834
- 0.024602506
being 0.00057638565
. 0.5383476
ĠThis 3.1786957
Ġmeans 3.7856302
Ġthat 0.14792143
Ġby 2.1409473
Ġdeliberately 8.040058
Ġadopting 3.4909651
Ġa 1.8924233
Ġpositive 0.6427714
Ġand 3.1195865
Ġhopeful 3.7400408
Ġoutlook 0.631696
, 0.25686872
Ġnurses 0.058352035
Ġcan 0.32936573
Ġbetter 3.2700665
Ġcope 2.2092173
Ġwith 0.033651695
Ġthe 1.766745
Ġdaily 4.2260118
Ġstresses 1.577578
Ġof 0.8124664
Ġtheir 1.1033049
Ġprofession 4.0313134
Ġand 2.0883574
Ġenhance 4.414563
Ġtheir 0.2100905
Ġemotional 0.9609246
Ġresilience 5.57327
. 0.14971974
Ċ 1.5455238
Additionally 4.891305
, 0.002086616
Ġlearned 2.2798584
Ġoptimism 0.0049151774
Ġcan 1.2486637
Ġfoster 6.3219647
Ġa 1.2814258
Ġsupportive 4.8873014
Ġand 1.5397074
Ġcollaborative 3.3217895
Ġwork 0.7437948
Ġculture 2.5316553
Ġwithin 3.411297
Ġhealthcare 2.320186
Ġsettings 1.7175729
. 0.19179243
ĠWhen 3.5753875
Ġnurses 0.59794956
Ġare 1.0018345
Ġoptimistic 5.2282534
, 0.54443914
Ġthey 0.370739
Ġare 0.9101605
Ġmore 0.8811454
Ġlikely 0.32010743
Ġto 0.005724825
Ġengage 3.3576689
Ġin 0.2979022
Ġpositive 2.2798018
Ġcommunication 3.1915498
, 1.3545201
Ġteamwork 6.0141287
, 0.032939456
Ġand 0.23154272
Ġconflict 6.6510477
Ġresolution 0.1904671
. 0.43905786
ĠOptim 8.341683
istic 0.7002209
Ġnurses 0.20909542
are 10.744432
Ġbetter 3.8263023
Ġequ 11.282645
ipp 4.7629433
e 4.8225245
Ġd 3.139421
Ġto 0.85842735
Ġhandle 3.9519656
Ġconflicts 3.4620757
Ġwith 2.4501312
Ġcolleagues 0.89043933
, 0.9033496
Ġas 3.584373
Ġthey 0.8845791
Ġare 0.96914124
Ġmore 1.2131199
Ġlikely 0.6466554
Ġto 0.020153733
Ġfocus 5.1654997
Ġon 0.12490955
Ġa 5.0723953
Ġsolution 1.000849
- 7.17633
oriented 0.86169845
Ġapproach 0.6074494
Ġrather 1.4770557
Ġthan 0.017161088
Ġdwelling 4.364005
Ġon 0.043605246
Ġnegative 2.5670786
Ġemotions 3.2539494
. 0.50769275
ĠBy 2.627081
Ġpromoting 4.9818983
Ġa 1.320975
Ġpositive 0.71313316
Ġwork 1.1825761
Ġenvironment 1.1657166
, 0.29069492
Ġlearned 3.7665186
Ġoptimism 0.024820808
Ġcontributes 5.5596514
Ġto 0.19540477
Ġenhanced 6.5049477
Ġcollaboration 2.9846232
, 1.0619668
Ġdecreased 6.046438
Ġworkplace 4.9956493
Ġtension 3.9697254
, 0.052372634
Ġand 0.19914341
Ġultimately 6.5252385
Ġhigher 4.897007
Ġjobs 10.786644
atisf 8.79258
action 0.023000747
Ġamong 3.7695413
Ġnurses 0.37211183
. 0.123472475
ĠThis 3.4612155
, 4.199682
Ġin 0.08600007
Ġturn 0.010091071
, 0.017258931
Ġleads 2.9034867
Ġto 0.017676307
Ġbetter 1.5908111
Ġpatient 0.45639607
Ġcare 0.56446683
Ġas 5.050829
Ġnurses 0.3782181
Ġare 0.6896275
Ġable 1.7355365
Ġto 0.009092297
Ġwork 2.512004
Ġtogether 1.8061458
Ġmore 1.1868168
Ġeffectively 0.4909029
Ġand 1.2047464
Ġefficiently 2.304844
. 0.3228925
Ċ 0.4474207
In 2.7622998
Ġconclusion 0.8932288
, 0.011280182
Ġlearned 0.99333197
Ġoptimism 0.0056534717
Ġis 0.95399827
Ġa 0.71701956
Ġpow 15.674229
Ġer 1.924324
ful 0.043708503
Ġcoping 0.29732084
Ġmechanism 0.15668127
Ġthat 0.94180965
Ġhelps 2.5552526
Ġnurses 0.08463477
Ġmanage 2.2599316
Ġstress 0.8147149
Ġlevels 2.4299855
, 2.1424546
Ġreduce 2.4474077
Ġthe 4.777552
Ġrisk 0.14471419
Ġof 0.00545834
Ġburn 0.0044323704
out 0.0090499995
, 0.061776288
Ġand 0.08841475
Ġimprove 1.2042625
Ġemotional 1.5865836
Ġwell 0.10017312
- 0.00908131
being 0.0066567576
Ġin 3.1702979
Ġthe 0.8972782
Ġhealthcare 0.19055638
Ġsetting 0.0761925
. 0.01840464
ĠBy 1.7744559
Ġref 7.9618635
ram 0.204688
ing 0.00032044618
Ġnegative 0.70913714
Ġsituations 1.1586809
, 1.3576915
Ġmaintaining 8.929379
Ġa 0.25569794
Ġsense 0.9403221
Ġof 0.0012473741
Ġcontrol 1.2512622
, 1.4954883
Ġand 0.11969867
Ġfostering 3.6772385
Ġa 0.30499715
Ġpositive 1.3022866
Ġwork 0.36122683
Ġenvironment 0.65344054
, 0.06473486
Ġnurses 0.16251229
Ġcan 0.22762917
Ġbenefit 4.545365
Ġfrom 0.15080933
Ġthe 1.9292145
Ġeffect 6.7325935
Ġs 9.804281
Ġof 0.26245996
Ġlearned 0.33779445
Ġoptimism 0.01573214
. 0.60344064
ĠUltimately 4.75153
, 0.03739276
Ġthis 0.98333377
Ġpositive 3.104449
Ġmindset 4.0853157
Ġcontributes 4.92204
Ġto 0.050457027
Ġtheir 7.1787615
Ġability 1.6428981
Ġto 0.009893023
Ġprovide 2.8311505
Ġquality 1.1231583
Ġpatient 0.832059
Ġcare 0.01131542
Ġand 1.5391059
Ġenhances 6.7260456
Ġtheir 0.4828485
Ġoverall 3.4593596
Ġjob 2.974512
Ġsatisfaction 0.056700457
Ġand 3.300244
Ġwell 3.0325732
- 0.06128118
being 0.0027160726
Ġas 5.102032
Ġhealthcare 5.54891
Ġprofessionals 0.21080625
. 0.024084197
